                  289
 cosmo charges (= -Bq-charge) (coordinates in Angstrom) format: Bq x y z q
 Bq   1.9648263573640810       0.26403442252960152       0.26404722935168512       -3.9791883371312184E-006
 Bq   1.6888201733473354       0.28170102913463768        1.0336976250561924       -1.4845204812367662E-003
 Bq   1.6888201733473354        1.0336848182341087       0.28171383595672128       -1.0954120811332282E-003
 Bq   1.8440660466694669       0.54744496912889307       0.54745777595097667       -1.3440831101310339E-003
 Bq  0.26402828204858320        1.9648324978450993       0.26404722935168512       -8.3682875559220812E-004
 Bq   1.0336786777530904        1.6888263138283537       0.28171383595672128       -9.8410113952953466E-004
 Bq  0.28169488865361936        1.6888263138283537        1.0336976250561924       -1.3471573613490502E-003
 Bq  0.54743882864787463        1.8440721871504853       0.54745777595097667       -1.1381116350673594E-003
 Bq   1.3549887641988196       0.57268766396817372        1.3550077115019217       -3.4946740496412893E-005
 Bq   1.3549887641988196        1.3549949046798380       0.57270047079025743       -1.1159551000334868E-003
 Bq  0.57268152348715540        1.3549949046798380        1.3550077115019217       -4.9712056206001070E-005
 Bq   1.1546934145364529        1.1546995550174712        1.1547123618395549       -9.7049754572205214E-004
 Bq  -1.0336929254386875       0.28170102913463768        1.6888391206504374       -2.5412697039784511E-004
 Bq -0.26404252973418013        1.9648324978450993       0.26404722935168512        8.9798500637243734E-005
 Bq -0.28170913633921629        1.6888263138283537        1.0336976250561924       -1.5689112172461914E-003
 Bq -0.54745307633347173        1.8440721871504853       0.54745777595097667       -6.7165822057493484E-004
 Bq  -1.9648406050496781       0.26403442252960152       0.26404722935168512       -9.1835182534376922E-004
 Bq  -1.6888344210329325        1.0336848182341087       0.28171383595672128       -7.3510610175927561E-004
 Bq  -1.6888344210329325       0.28170102913463768        1.0336976250561924       -9.7978805569970406E-004
 Bq  -1.8440802943550640       0.54744496912889307       0.54745777595097667       -9.4428579077746923E-004
 Bq -0.57269577117275239        1.3549949046798380        1.3550077115019217       -1.1107920444196695E-003
 Bq  -1.3550030118844167        1.3549949046798380       0.57270047079025743       -8.6465654206146483E-004
 Bq  -1.3550030118844167       0.57268766396817372        1.3550077115019217       -1.1425375277101838E-003
 Bq  -1.1547076622220500        1.1546995550174712        1.1547123618395549       -1.5471011811241287E-003
 Bq  -1.0336929254386875      -0.28170299585819797        1.6888391206504374       -8.1251109213633657E-004
 Bq -0.28170913633921629       -1.0336867849576692        1.6888391206504374       -9.0310802767501670E-004
 Bq -0.54745307633347173      -0.54744693585245341        1.8440849939725690        1.6320417385752049E-005
 Bq  -1.9648406050496781      -0.26403638925316186       0.26404722935168512       -7.6210132919990090E-004
 Bq  -1.6888344210329325      -0.28170299585819797        1.0336976250561924       -1.1155378149542991E-003
 Bq  -1.8440802943550640      -0.54744693585245341       0.54745777595097667       -5.4832456413137301E-004
 Bq -0.26404252973418013       -1.9648344645686597       0.26404722935168512        5.9387060986218414E-005
 Bq -0.28170913633921629       -1.6888282805519141        1.0336976250561924       -1.1570599551203736E-003
 Bq -0.54745307633347173       -1.8440741538740457       0.54745777595097667        4.3798822597682719E-006
 Bq  -1.3550030118844167      -0.57268963069173406        1.3550077115019217       -1.4788407394488443E-003
 Bq -0.57269577117275239       -1.3549968714033984        1.3550077115019217       -1.5737001280764246E-003
 Bq  -1.1547076622220500       -1.1547015217410317        1.1547123618395549       -1.2141847467737701E-003
 Bq  0.28169488865361936       -1.0336867849576692        1.6888391206504374       -1.6393870028197832E-004
 Bq  0.26402828204858320       -1.9648344645686597       0.26404722935168512       -8.4821223146209807E-004
 Bq  0.28169488865361936       -1.6888282805519141        1.0336976250561924       -1.1298704982963060E-003
 Bq   1.0336786777530904       -1.6888282805519141       0.28171383595672128       -1.0320573154491588E-003
 Bq  0.54743882864787463       -1.8440741538740457       0.54745777595097667       -9.1950013017170974E-004
 Bq   1.9648263573640810      -0.26403638925316186       0.26404722935168512        2.6798057501793518E-005
 Bq   1.6888201733473354       -1.0336867849576692       0.28171383595672128       -2.9792359357324043E-004
 Bq   1.6888201733473354      -0.28170299585819797        1.0336976250561924       -1.5271435477000879E-003
 Bq   1.8440660466694669      -0.54744693585245341       0.54745777595097667       -1.0321307169169035E-003
 Bq  0.57268152348715540       -1.3549968714033984        1.3550077115019217       -1.1270632937425838E-003
 Bq   1.3549887641988196       -1.3549968714033984       0.57270047079025743       -1.1845167501390935E-003
 Bq   1.3549887641988196      -0.57268963069173406        1.3550077115019217       -9.0272059485259066E-004
 Bq   1.1546934145364529       -1.1547015217410317        1.1547123618395549       -1.2918144321135295E-003
 Bq  0.26402828204858320       0.26403442252960152       -1.9648216577465760       -9.2820993042872955E-004
 Bq   1.0336786777530904       0.28170102913463768       -1.6888154737298304        3.7811100287623151E-005
 Bq  0.28169488865361936        1.0336848182341087       -1.6888154737298304       -1.1643385407230664E-003
 Bq  0.54743882864787463       0.54744496912889307       -1.8440613470519620       -1.3617405373218198E-003
 Bq   1.6888201733473354        1.0336848182341087      -0.28169018903611442       -6.3431661455569388E-004
 Bq  0.26402828204858320        1.9648324978450993      -0.26402358243107826        1.2707615394790138E-004
 Bq   1.0336786777530904        1.6888263138283537      -0.28169018903611442       -1.1813856618709069E-003
 Bq  0.28169488865361936        1.6888263138283537       -1.0336739781355855        6.6979013110878882E-006
 Bq  0.54743882864787463        1.8440721871504853      -0.54743412903036970       -6.4088911152355207E-004
 Bq   1.3549887641988196       0.57268766396817372       -1.3549840645813147        3.4528264376056961E-007
 Bq   1.3549887641988196        1.3549949046798380      -0.57267682386965035       -1.2376199837156043E-003
 Bq  0.57268152348715540        1.3549949046798380       -1.3549840645813147       -1.2836918661918969E-003
 Bq   1.1546934145364529        1.1546995550174712       -1.1546887149189480       -1.5439223963055748E-003
 Bq -0.26404252973418013       0.26403442252960152       -1.9648216577465760       -8.7167294973672165E-004
 Bq -0.28170913633921629        1.0336848182341087       -1.6888154737298304        1.0139073878873710E-004
 Bq  -1.0336929254386875       0.28170102913463768       -1.6888154737298304       -1.1226124135788385E-003
 Bq -0.54745307633347173       0.54744496912889307       -1.8440613470519620       -7.2244170503404470E-004
 Bq  -1.9648406050496781       0.26403442252960152      -0.26402358243107826       -1.1961642523758867E-003
 Bq  -1.6888344210329325        1.0336848182341087      -0.28169018903611442        4.4202535327474347E-005
 Bq  -1.6888344210329325       0.28170102913463768       -1.0336739781355855       -1.4342188203143931E-003
 Bq  -1.8440802943550640       0.54744496912889307      -0.54743412903036970       -8.9890295111050061E-004
 Bq  -1.3550030118844167       0.57268766396817372       -1.3549840645813147       -2.2916430758425843E-004
 Bq -0.26404252973418013      -0.26403638925316186       -1.9648216577465760       -7.3392494698741920E-004
 Bq  -1.0336929254386875      -0.28170299585819797       -1.6888154737298304       -1.2264304697985401E-003
 Bq -0.28170913633921629       -1.0336867849576692       -1.6888154737298304       -1.1962843297432194E-003
 Bq -0.54745307633347173      -0.54744693585245341       -1.8440613470519620       -8.9803995881752115E-004
 Bq  -1.9648406050496781      -0.26403638925316186      -0.26402358243107826       -8.6610469825046518E-004
 Bq  -1.6888344210329325      -0.28170299585819797       -1.0336739781355855       -1.2178676313177085E-003
 Bq  -1.8440802943550640      -0.54744693585245341      -0.54743412903036970        8.9428755729487871E-005
 Bq -0.28170913633921629       -1.6888282805519141       -1.0336739781355855        5.0623887888901690E-005
 Bq  -1.3550030118844167      -0.57268963069173406       -1.3549840645813147       -7.5034695353704104E-004
 Bq -0.57269577117275239       -1.3549968714033984       -1.3549840645813147        9.6372854032219040E-005
 Bq  0.26402828204858320      -0.26403638925316186       -1.9648216577465760       -8.4441856251065220E-004
 Bq  0.28169488865361936       -1.0336867849576692       -1.6888154737298304       -1.2366755562920647E-003
 Bq  0.54743882864787463      -0.54744693585245341       -1.8440613470519620       -7.2502526725403587E-004
 Bq  0.26402828204858320       -1.9648344645686597      -0.26402358243107826       -7.6664676101782239E-004
 Bq  0.28169488865361936       -1.6888282805519141       -1.0336739781355855       -1.4490549820250556E-003
 Bq   1.0336786777530904       -1.6888282805519141      -0.28169018903611442       -1.1531269383575648E-003
 Bq  0.54743882864787463       -1.8440741538740457      -0.54743412903036970       -1.3261070573527139E-003
 Bq  0.57268152348715540       -1.3549968714033984       -1.3549840645813147       -1.3220710209074582E-003
 Bq   1.3549887641988196       -1.3549968714033984      -0.57267682386965035        8.0076538268525594E-006
 Bq  -1.9395493484404447      -0.67811997651259559       -5.2611205627220621E-004   2.6170729571530399E-004
 Bq  -1.7601453354100600      -0.66663668264052689       0.49974662680176213        5.8006376577452144E-005
 Bq  -1.8610551493680956      -0.49390312798009012       0.18369073647623327        2.9954951261115964E-005
 Bq  -1.3343033788935914       -1.0328492854532714       0.92558858331823091        9.0802712213493645E-006
 Bq -0.84551393390762564       -1.5216387304392369       0.92558858331823091        3.6763963461064883E-005
 Bq  -1.0182474885680624       -1.2055828401137081        1.0264983972762665        8.2902747623495440E-008
 Bq  -1.9395493484404447       -1.0213659915812026       -5.2611205627220621E-004   3.7926144129089297E-004
 Bq  -1.7601453354100600       -1.0328492854532714       0.49974662680176213        3.3960436885908989E-004
 Bq  -1.7601453354100600       -1.5216387304392369        1.0957181815796569E-002   7.2183249122667289E-004
 Bq  -1.8610551493680956       -1.2055828401137081       0.18369073647623327        4.8496566310204128E-004
 Bq -0.83403064003555683       -2.1268846999860904       -5.2611205627220621E-004   5.0993814715980283E-004
 Bq  -1.3343033788935914       -1.9474806869557058        1.0957181815796569E-002   7.9240961886128741E-004
 Bq -0.84551393390762564       -1.9474806869557058       0.49974662680176213        4.2677913397917591E-004
 Bq  -1.0182474885680624       -2.0483905009137415       0.18369073647623327        5.9810897670985739E-004
 Bq  -1.5431549274226859       -1.2219905911574078       0.70859817533085667        3.0916875415771010E-004
 Bq  -1.5431549274226859       -1.7304902789683314       0.20009848751993300        7.5020374616249481E-004
 Bq  -1.0346552396117621       -1.7304902789683314       0.70859817533085667        3.8222271860524447E-004
 Bq  -1.4129629549175609       -1.6002983064632064       0.57840620282573163        5.6999033527606032E-004
 Bq -0.49078462496694997       -2.1268846999860904       -5.2611205627220621E-004   3.5815218241297268E-004
 Bq -0.47930133109488121       -1.9474806869557058       0.49974662680176213        2.2701583335609584E-004
 Bq   9.4881138910843620E-003  -1.9474806869557058        1.0957181815796569E-002   3.9926887808628558E-005
 Bq -0.30656777643444444       -2.0483905009137415       0.18369073647623327        2.1653298282482705E-004
 Bq -0.29016002539074470       -1.7304902789683314       0.70859817533085667        6.0529930361522275E-007
 Bq  -1.3343033788935914      -0.66663668264052689       -1.2698868224993822        9.9083149239436726E-005
 Bq  -1.9395493484404447      -0.67811997651259559      -0.34377212712487915        2.5642899546911443E-004
 Bq  -1.7601453354100600      -0.66663668264052689      -0.84404486598291351        2.5083163825956279E-004
 Bq  -1.8610551493680956      -0.49390312798009012      -0.52798897565738467        4.1064385181591109E-005
 Bq  -1.5431549274226859      -0.47749537693639038       -1.0528964145120081        2.1431724434641525E-005
 Bq -0.83403064003555683       -1.0213659915812026       -1.4492908355297669        2.2075525945703047E-005
 Bq  -1.3343033788935914       -1.0328492854532714       -1.2698868224993822        3.6899699666895230E-004
 Bq -0.84551393390762564       -1.5216387304392369       -1.2698868224993822        3.6468313984893422E-004
 Bq  -1.0182474885680624       -1.2055828401137081       -1.3707966364574178        2.8459348092121608E-004
 Bq  -1.9395493484404447       -1.0213659915812026      -0.34377212712487915        3.9688710239069934E-004
 Bq  -1.7601453354100600       -1.0328492854532714      -0.84404486598291351        4.8359973124091816E-004
 Bq  -1.7601453354100600       -1.5216387304392369      -0.35525542099694790        7.8245044758486681E-004
 Bq  -1.8610551493680956       -1.2055828401137081      -0.52798897565738467        5.8600891594285569E-004
 Bq -0.83403064003555683       -2.1268846999860904      -0.34377212712487915        5.5206634097511743E-004
 Bq  -1.3343033788935914       -1.9474806869557058      -0.35525542099694790        8.5297036219004639E-004
 Bq -0.84551393390762564       -1.9474806869557058      -0.84404486598291351        6.2792527510694622E-004
 Bq  -1.0182474885680624       -2.0483905009137415      -0.52798897565738467        7.1197188949697189E-004
 Bq  -1.5431549274226859       -1.2219905911574078       -1.0528964145120081        5.7361715681061344E-004
 Bq  -1.5431549274226859       -1.7304902789683314      -0.54439672670108430        8.8473763428939599E-004
 Bq  -1.0346552396117621       -1.7304902789683314       -1.0528964145120081        6.5171869540340459E-004
 Bq  -1.4129629549175609       -1.6002983064632064      -0.92270444200688295        8.4886352693293115E-004
 Bq -0.47930133109488121       -1.5216387304392369       -1.2698868224993822        8.0476254186387426E-005
 Bq -0.49078462496694997       -2.1268846999860904      -0.34377212712487915        3.9408810972371580E-004
 Bq -0.47930133109488121       -1.9474806869557058      -0.84404486598291351        3.9578670112799043E-004
 Bq   9.4881138910843620E-003  -1.9474806869557058      -0.35525542099694790        1.0186099870301962E-004
 Bq -0.30656777643444444       -2.0483905009137415      -0.52798897565738467        3.1017494995102694E-004
 Bq -0.29016002539074470       -1.7304902789683314       -1.0528964145120081        9.5599210037564412E-005
 Bq -0.27559347019873298        2.1783453906810957      -0.25059124795899113        3.7874477988007120E-004
 Bq  0.22467926865930130        1.9989413776507110      -0.23910795408692237        9.3212353582059791E-005
 Bq -0.26411017632666423        1.9989413776507110       0.24968149089904315        7.3058429115067838E-005
 Bq  -9.1376621666227523E-002   2.0998511916087468       -6.6374399426485653E-002   2.7333969861383751E-004
 Bq -0.61883948526734001        2.1783453906810957      -0.25059124795899113        4.9423999354490189E-004
 Bq -0.63032277913940882        1.9989413776507110       0.24968149089904315        3.4817419984633022E-004
 Bq  -1.1191122241253741        1.9989413776507110      -0.23910795408692237        6.6272612003254877E-004
 Bq -0.80305633379984542        2.0998511916087468       -6.6374399426485653E-002   4.8451007271370610E-004
 Bq  -1.7243581936722279        1.0728266822762078      -0.25059124795899113        1.3678180994204520E-004
 Bq  -1.5449541806418432        1.5730994211342422      -0.23910795408692237        5.0666533602936666E-004
 Bq  -1.5449541806418432        1.0843099761482768       0.24968149089904315        5.6233768216127850E-006
 Bq  -1.6458639945998788        1.2570435308087136       -6.6374399426485653E-002   3.1217251577415856E-004
 Bq -0.81946408484354516        1.7819509696633367       0.45853303942813778        9.7885993197050484E-005
 Bq  -1.3279637726544689        1.7819509696633367       -4.9966648382785923E-002   5.2743366715172807E-004
 Bq  -1.3279637726544689        1.2734512818524131       0.45853303942813778        2.3942212364076154E-006
 Bq  -1.1977718001493438        1.6517589971582116       0.32834106692301268        2.9384848117949901E-004
 Bq  -1.7243581936722279       0.72958066720760106      -0.25059124795899113        2.3256815727989953E-007
 Bq -0.27559347019873298        1.0728266822762078       -1.6993559714324860        6.8351549448854345E-005
 Bq  0.22467926865930130        1.0843099761482768       -1.5199519584021011        3.9827071025346729E-008
 Bq -0.26411017632666423        1.5730994211342422       -1.5199519584021011        4.6993424117784070E-004
 Bq  -9.1376621666227523E-002   1.2570435308087136       -1.6208617723601366        2.2784413941247584E-004
 Bq -0.27559347019873298        2.1783453906810957      -0.59383726302759821        4.9185218643201748E-004
 Bq  0.22467926865930130        1.9989413776507110      -0.60532055689966680        3.5822549282052077E-004
 Bq -0.26411017632666423        1.9989413776507110       -1.0941100018856325        6.4324902327787239E-004
 Bq  -9.1376621666227523E-002   2.0998511916087468      -0.77805411156010351        4.7604932228770519E-004
 Bq  0.43353081718839592        1.7819509696633367      -0.79446186260380336        9.8475489265139384E-005
 Bq  -7.4968870622527786E-002   1.7819509696633367       -1.3029615504147269        4.8999038496171110E-004
 Bq  0.30333884468327077        1.6517589971582116       -1.1727695779096019        2.1955050811511010E-004
 Bq -0.61883948526734001        1.0728266822762078       -1.6993559714324860        2.8404785897397284E-004
 Bq -0.63032277913940882        1.5730994211342422       -1.5199519584021011        6.1983533276657699E-004
 Bq  -1.1191122241253741        1.0843099761482768       -1.5199519584021011        4.5051756961443098E-004
 Bq -0.80305633379984542        1.2570435308087136       -1.6208617723601366        4.6479606511971806E-004
 Bq -0.61883948526734001        2.1783453906810957      -0.59383726302759821        6.0487297965897927E-004
 Bq -0.63032277913940882        1.9989413776507110       -1.0941100018856325        8.0279785662955576E-004
 Bq  -1.1191122241253741        1.9989413776507110      -0.60532055689966680        8.1426516908009931E-004
 Bq -0.80305633379984542        2.0998511916087468      -0.77805411156010351        7.7455928651429631E-004
 Bq  -1.7243581936722279        1.0728266822762078      -0.59383726302759821        2.8328656107830914E-004
 Bq  -1.5449541806418432        1.5730994211342422      -0.60532055689966680        6.4114302623502289E-004
 Bq  -1.5449541806418432        1.0843099761482768       -1.0941100018856325        4.4321772371245046E-004
 Bq  -1.6458639945998788        1.2570435308087136      -0.77805411156010351        4.7241240151004181E-004
 Bq -0.81946408484354516        1.7819509696633367       -1.3029615504147269        8.3063759742628277E-004
 Bq  -1.3279637726544689        1.7819509696633367      -0.79446186260380336        8.4220471106074668E-004
 Bq  -1.3279637726544689        1.2734512818524131       -1.3029615504147269        6.2138049901375018E-004
 Bq  -1.1977718001493438        1.6517589971582116       -1.1727695779096019        9.2093023824074314E-004
 Bq -0.61883948526734001       0.72958066720760106       -1.6993559714324860        5.2044016813081612E-005
 Bq  -1.1191122241253741       0.71809737333553225       -1.5199519584021011        1.7252911298946630E-004
 Bq -0.80305633379984542       0.54536381867509542       -1.6208617723601366        5.0972072808948319E-007
 Bq  -1.7243581936722279       0.72958066720760106      -0.59383726302759821        7.8691111184369040E-005
 Bq  -1.5449541806418432       0.71809737333553225       -1.0941100018856325        1.6184094246233770E-004
 Bq  -1.6458639945998788       0.54536381867509542      -0.77805411156010351        1.8766721920048515E-006
 Bq  -1.3279637726544689       0.52895606763139580       -1.3029615504147269        1.7674336616084460E-005
 Bq  0.31853790771960366       0.30679010672297902        2.3497986206807036        6.9185244786019518E-004
 Bq  0.81881064657763802       0.31827340059504772        2.1703946076503189        7.4717676320873363E-004
 Bq  0.33002120159167248       0.80706284558101327        2.1703946076503189        7.4205409897938645E-004
 Bq  0.50275475625210908       0.49100695525548449        2.2713044216083542        7.5117803569990844E-004
 Bq   1.4240566161244914       0.30679010672297902        1.2442799122758155        4.1691516403124295E-006
 Bq   1.2446526030941067       0.31827340059504772        1.7445526511338498        3.9370911294656162E-004
 Bq   1.2446526030941067       0.80706284558101327        1.2557632061478845        1.6896292142210846E-005
 Bq   1.3455624170521423       0.49100695525548449        1.4284967608083212        1.1835800331623991E-004
 Bq  0.31853790771960366        1.4123088151278669        1.2442799122758155        3.0350443422330669E-006
 Bq  0.81881064657763802        1.2329048020974822        1.2557632061478845        2.1580649985258409E-005
 Bq  0.33002120159167248        1.2329048020974822        1.7445526511338498        3.9437490929000171E-004
 Bq  0.50275475625210908        1.3338146160555178        1.4284967608083212        1.3668394857446335E-004
 Bq   1.0276621951067326       0.50741470629918417        1.9534041996629443        6.1706779945959629E-004
 Bq   1.0276621951067326        1.0159143941101079        1.4449045118520207        2.9842313659027021E-004
 Bq  0.51916250729580882        1.0159143941101079        1.9534041996629443        6.1526251350484042E-004
 Bq  0.89747022260160747       0.88572242160498271        1.8232122271578193        5.8948564682174715E-004
 Bq  -2.4708107349003305E-002  0.30679010672297902        2.3497986206807036        6.5487367131413161E-004
 Bq  -3.6191401221072082E-002  0.80706284558101327        2.1703946076503189        6.8889552989475473E-004
 Bq -0.52498084620703767       0.31827340059504772        2.1703946076503189        5.6880164643457315E-004
 Bq -0.20892495588150881       0.49100695525548449        2.2713044216083542        6.5370340178506664E-004
 Bq  -2.4708107349003305E-002   1.4123088151278669        1.2442799122758155        2.5322112510687324E-008
 Bq  -3.6191401221072082E-002   1.2329048020974822        1.7445526511338498        3.5133747084981873E-004
 Bq -0.20892495588150881        1.3338146160555178        1.4284967608083212        4.3196934024088336E-005
 Bq -0.95082280272350650       0.31827340059504772        1.7445526511338498        2.0357490145420109E-004
 Bq -0.22533270692520851        1.0159143941101079        1.9534041996629443        5.0258517489002298E-004
 Bq -0.73383239473613215        1.0159143941101079        1.4449045118520207        3.4455161717427702E-006
 Bq -0.73383239473613215       0.50741470629918417        1.9534041996629443        4.0320817693189926E-004
 Bq -0.60364042223100700       0.88572242160498271        1.8232122271578193        3.7204611568803414E-004
 Bq  -2.4708107349003305E-002  -3.6455908345627987E-002   2.3497986206807036        6.2019779215924907E-004
 Bq -0.52498084620703767       -4.7939202217696764E-002   2.1703946076503189        5.1467849549234862E-004
 Bq  -3.6191401221072082E-002 -0.53672864720366231        2.1703946076503189        5.1427495973514065E-004
 Bq -0.20892495588150881      -0.22067275687813348        2.2713044216083542        5.5831469934434813E-004
 Bq -0.95082280272350650       -4.7939202217696764E-002   1.7445526511338498        1.2645472461559216E-004
 Bq  -3.6191401221072082E-002 -0.96257060372013115        1.7445526511338498        1.2074293536864670E-004
 Bq -0.73383239473613215      -0.23708050792183322        1.9534041996629443        3.4905072375200277E-004
 Bq -0.22533270692520851      -0.74558019573275691        1.9534041996629443        3.4649912488788411E-004
 Bq -0.60364042223100700      -0.61538822322763187        1.8232122271578193        4.9641504285632161E-005
 Bq  0.31853790771960366       -3.6455908345627987E-002   2.3497986206807036        6.5768445058977281E-004
 Bq  0.33002120159167248      -0.53672864720366231        2.1703946076503189        5.7477545662502731E-004
 Bq  0.81881064657763802       -4.7939202217696764E-002   2.1703946076503189        6.9943547790573364E-004
 Bq  0.50275475625210908      -0.22067275687813348        2.2713044216083542        6.6216020412360719E-004
 Bq  0.33002120159167248      -0.96257060372013115        1.7445526511338498        1.8091221087577277E-004
 Bq   1.4240566161244914       -3.6455908345627987E-002   1.2442799122758155        2.5860652300230784E-007
 Bq   1.2446526030941067       -4.7939202217696764E-002   1.7445526511338498        3.6727392642779526E-004
 Bq   1.3455624170521423      -0.22067275687813348        1.4284967608083212        6.0792606025293869E-005
 Bq  0.51916250729580882      -0.74558019573275691        1.9534041996629443        4.1299991445573292E-004
 Bq   1.0276621951067326      -0.74558019573275691        1.4449045118520207        1.0216625823729529E-005
 Bq   1.0276621951067326      -0.23708050792183322        1.9534041996629443        5.2352666552738360E-004
 Bq  0.89747022260160747      -0.61538822322763187        1.8232122271578193        4.1425734718551923E-004
 Bq   2.2398575498309796       -1.5003798987597470E-002 -0.30668234558364155        4.6364001110123151E-004
 Bq   2.0604535368005950       -3.5205051155286935E-003  0.19359039327439276        1.6334808649811494E-004
 Bq   2.0604535368005950       0.48526893987043679      -0.29519905171157274        3.8064334701360688E-004
 Bq   2.1613633507586307       0.16921304954490801      -0.12246549705113606        3.3843466201188946E-004
 Bq   1.6346115802841261       0.91111089638690557      -0.29519905171157274        1.8670694308349737E-006
 Bq   1.8434631288132208       0.18562080058860775       0.40244194180348736        2.5017252942393849E-007
 Bq   1.8434631288132208       0.69412048839953144      -0.10605774600743632        6.9479700767351282E-005
 Bq   1.6346115802841261       -1.2843645094307075      -0.29519905171157274        3.1017136008309521E-004
 Bq   1.3185556899585975       -1.3852743233887430      -0.12246549705113606        5.9773418245093730E-006
 Bq   2.2398575498309796      -0.35824981405620437      -0.30668234558364155        5.1172550991004733E-004
 Bq   2.0604535368005950      -0.85852255291423873      -0.29519905171157274        5.5847566135548688E-004
 Bq   2.0604535368005950      -0.36973310792827319       0.19359039327439276        2.9640330809729034E-004
 Bq   2.1613633507586307      -0.54246666258870990      -0.12246549705113606        4.5671858948215086E-004
 Bq   1.8434631288132208       -1.0673741014433333      -0.10605774600743632        3.8662977613583430E-004
 Bq   1.8434631288132208      -0.55887441363240964       0.40244194180348736        1.3286867468156351E-004
 Bq   1.7132711563080956      -0.93718212893820829       0.27224996929836226        9.1867945310221668E-005
 Bq   1.1343388414260920       -1.5003798987597470E-002  -1.7554470690571362        2.0389831890455204E-004
 Bq   1.6346115802841261       -3.5205051155286935E-003  -1.5760430560267515        5.9577219144429548E-004
 Bq   1.1458221352981608       0.48526893987043679       -1.5760430560267515        1.8129682400168679E-005
 Bq   1.3185556899585975       0.16921304954490801       -1.6769528699847871        3.0389688981408191E-004
 Bq   2.2398575498309796       -1.5003798987597470E-002 -0.64992836065224846        5.9017957963907678E-004
 Bq   2.0604535368005950       -3.5205051155286935E-003  -1.1502010995102829        7.8748089465255561E-004
 Bq   2.0604535368005950       0.48526893987043679      -0.66141165452431727        5.0707430845955157E-004
 Bq   2.1613633507586307       0.16921304954490801      -0.83414520918475399        6.4507146853372309E-004
 Bq   1.6346115802841261       0.91111089638690557      -0.66141165452431727        9.0248221038680029E-005
 Bq   1.8434631288132208       0.18562080058860775       -1.3590526480393774        6.7754459682659236E-004
 Bq   1.8434631288132208       0.69412048839953144      -0.85055296022845372        4.1758327818422475E-004
 Bq   1.3349634410022972       0.69412048839953144       -1.3590526480393774        9.4191701334490029E-005
 Bq   1.7132711563080956       0.56392851589440629       -1.2288606755342524        4.9396221124335497E-004
 Bq  0.79109282635748512       -1.5003798987597470E-002  -1.7554470690571362        6.1538213639075924E-006
 Bq  0.79109282635748512      -0.35824981405620437       -1.7554470690571362        5.0619299795650738E-005
 Bq  0.77960953248541631      -0.85852255291423873       -1.5760430560267515        3.5455409330467483E-005
 Bq  0.77960953248541631       -1.2843645094307075       -1.1502010995102829        3.4440981090376118E-007
 Bq   1.1343388414260920      -0.35824981405620437       -1.7554470690571362        2.9537216711594789E-004
 Bq   1.1458221352981608      -0.85852255291423873       -1.5760430560267515        3.6431175608837466E-004
 Bq   1.6346115802841261      -0.36973310792827319       -1.5760430560267515        6.6717130295659637E-004
 Bq   1.3185556899585975      -0.54246666258870990       -1.6769528699847871        4.5308206450318485E-004
 Bq   1.1343388414260920       -1.4637685224610921      -0.64992836065224846        1.4902952366328827E-005
 Bq   1.1458221352981608       -1.2843645094307075       -1.1502010995102829        1.8216467444421501E-004
 Bq   1.6346115802841261       -1.2843645094307075      -0.66141165452431727        4.2756522843492942E-004
 Bq   1.3185556899585975       -1.3852743233887430      -0.83414520918475399        2.3260964609750939E-004
 Bq   2.2398575498309796      -0.35824981405620437      -0.64992836065224846        6.3717351698481639E-004
 Bq   2.0604535368005950      -0.85852255291423873      -0.66141165452431727        7.2308287183679492E-004
 Bq   2.0604535368005950      -0.36973310792827319       -1.1502010995102829        8.5325165083272145E-004
 Bq   2.1613633507586307      -0.54246666258870990      -0.83414520918475399        7.6823401103461985E-004
 Bq   1.3349634410022972       -1.0673741014433333       -1.3590526480393774        4.6508514200832200E-004
 Bq   1.8434631288132208       -1.0673741014433333      -0.85055296022845372        6.8896509006493103E-004
 Bq   1.8434631288132208      -0.55887441363240964       -1.3590526480393774        8.2865911111747279E-004
 Bq   1.7132711563080956      -0.93718212893820829       -1.2288606755342524        7.9778546476040753E-004
