                  429
 cosmo charges (= -Bq-charge) (coordinates in Angstrom) format: Bq x y z q
 Bq -0.92010213730935853      -0.21017161280317737        1.7632956899871748        2.3914054173942989E-005
 Bq -0.48421766457275733      -0.81011511723633600        1.7632956899871748       -1.6242218408589471E-004
 Bq   1.6031296109826463        1.9720530971803928E-006   1.1957983889632224       -6.6831933272237798E-004
 Bq  0.49539077171858914        1.5246738565216194        1.1957983889632224       -4.8146685397303796E-004
 Bq  -1.2969683830272241       0.94230092699482848        1.1957983889632224       -6.3147575957780977E-004
 Bq  -1.1798746390089900       0.39891123942990792        1.5648472824993458       -3.9744130499478475E-004
 Bq -0.74399004010670100       0.99885469655093362        1.5648472824993458       -1.4392260293631665E-004
 Bq  -1.0954137763057725       0.79586287339691464        1.4719560285373690       -4.7559618966760281E-004
 Bq  -1.2969683830272241      -0.94229701585850678        1.1957983889632224       -7.0133559679270291E-004
 Bq -0.74399004010670100      -0.99885078541461181        1.5648472824993458       -8.0871118230799871E-004
 Bq  -1.1798746390089900      -0.39890726521074221        1.5648472824993458       -6.8530722709760766E-004
 Bq  -1.0954137763057725      -0.79585896226059283        1.4719560285373690       -7.7551560983746964E-004
 Bq  0.49539077171858914       -1.5246698192196098        1.1957983889632224       -5.5389716962533225E-004
 Bq  0.72005634604830071       -1.0162322537256792        1.5648472824993458       -2.2986770133153617E-004
 Bq   1.4780441419740983E-002  -1.2453902097008660        1.5648472824993458       -6.1460860853498889E-004
 Bq  0.41840374357065763       -1.2877280080527920        1.4719560285373690       -5.2769480580459882E-004
 Bq  0.84801118946643850        1.5246738565216194       0.97786709746833844       -5.3409417087658256E-004
 Bq   1.3930338395285473        1.2453942470028754       0.71303976748702191       -5.5972129935526888E-004
 Bq   1.1294436902817924        1.2877320453548016        1.0325092676057501       -5.3637717803257934E-004
 Bq  -1.1880027372797819        1.2776628879772149       0.97786709746833844       -6.8361935818725406E-004
 Bq -0.63349526622312957        1.3389227638539276        1.3438577347322032       -6.5447947395754630E-004
 Bq -0.75397075533714020        1.7097082019169227       0.71303976748702191       -5.2705132834648255E-004
 Bq -0.87569023813285329        1.4721022545695284        1.0325092676057501       -7.9486070496224276E-004
 Bq  -1.5822443953557004      -0.73503196085872025       0.97786709746833844       -5.3316130960047448E-004
 Bq  -1.4691537624456552      -0.18873371261011493        1.3438577347322032       -6.2167391007127842E-004
 Bq  -1.8590206252971275      -0.18873371261011493       0.71303976748702191       -5.4229740886066469E-004
 Bq  -1.6706571458978601      -0.37792010770805429        1.0325092676057501       -5.9362866686717836E-004
 Bq  0.21011488555580055       -1.7319348111365525       0.97786709746833844       -5.7355505898091380E-004
 Bq -0.27449865540384955       -1.4555638253843370        1.3438577347322032       -7.6015497985762459E-004
 Bq -0.39497417605928203       -1.8263491372816445       0.71303976748702191       -2.1520076541871325E-004
 Bq -0.15683970487498494       -1.7056668626053306        1.0325092676057501       -6.6933080580312831E-004
 Bq   1.7120952567300884      -0.33535991078995969       0.97786709746833844       -7.9700155956775875E-004
 Bq   1.2994969957421005      -0.71085154979782816        1.3438577347322032       -5.2692837526419761E-004
 Bq   1.6149059162818473      -0.94000950577301479       0.71303976748702191       -6.8415639733707123E-004
 Bq   1.5737177396771498      -0.67623723635592126        1.0325092676057501       -7.4707413032690240E-004
 Bq   1.7120952567300884       0.33536388500912540       0.97786709746833844       -7.5271830890577540E-004
 Bq   1.6149059162818473       0.94001341690933660       0.71303976748702191       -6.5775934192536384E-004
 Bq   1.2994969957421005       0.71085546093414997        1.3438577347322032        3.1353540340739623E-005
 Bq   1.5737177396771498       0.67624114749224296        1.0325092676057501       -6.8562920273627231E-004
 Bq  0.21011488555580055        1.7319388484385621       0.97786709746833844       -7.0476615169293849E-004
 Bq -0.39497417605928203        1.8263531745836541       0.71303976748702191       -6.7504630684659533E-004
 Bq -0.27449865540384955        1.4555678626863466        1.3438577347322032       -4.8026233311461441E-004
 Bq -0.15683970487498494        1.7056708999073402        1.0325092676057501       -8.0411581623481693E-004
 Bq  -1.5822443953557004       0.73503587199504206       0.97786709746833844       -5.2722531919189436E-004
 Bq  -1.8590206252971275       0.18873765528785866       0.71303976748702191       -5.0234603639414538E-004
 Bq  -1.4691537624456552       0.18873765528785866        1.3438577347322032       -5.5615075810758891E-004
 Bq  -1.6706571458978601       0.37792408192721993        1.0325092676057501       -4.9138368946265859E-004
 Bq  -1.1880027372797819       -1.2776588506752053       0.97786709746833844       -2.7081341516205226E-004
 Bq -0.63349526622312957       -1.3389187265519180        1.3438577347322032       -8.2849526335818102E-004
 Bq -0.87569023813285329       -1.4720982172675190        1.0325092676057501       -3.9473500979572695E-004
 Bq  0.84801118946643850       -1.5246698192196098       0.97786709746833844       -4.8730499750596762E-004
 Bq   1.3930338395285473       -1.2453902097008660       0.71303976748702191       -5.8482143134074016E-004
 Bq   1.0776249189888008       -1.0162322537256792        1.3438577347322032       -5.4406837953752119E-004
 Bq   1.1294436902817924       -1.2877280080527920        1.0325092676057501       -5.6695178447677824E-004
 Bq  0.78066665788137779        1.7319388484385621       0.62524674280333303       -5.5671472807507921E-004
 Bq   1.3247443900247127        1.4555678626863466       0.35547116300509990       -4.9388705459096904E-004
 Bq  0.81440197497638589        1.8263531745836541       -3.4395743215827605E-002  -5.4505073271271520E-004
 Bq  0.99364714470416726        1.7056708999073402       0.32146932089461544       -5.0149810207881368E-004
 Bq  -1.4059341549403537        1.2776628879772149       0.62524674280333303       -4.9930586468256016E-004
 Bq  -1.9273100748009624      -0.39890726521074221       0.35547116300509990       -3.8516190023491631E-004
 Bq  0.38642506288830325       -1.8600317171191525       0.62524674280333303       -5.3176555801476288E-004
 Bq  0.41462804611472731       -1.9562436519840110       -3.4395743215827605E-002  -6.0694938267359666E-004
 Bq  0.19868028425129339       -1.9639671368940301       0.32146932089461544       -4.9418587782424500E-004
 Bq   1.8884054971454349      -0.20726309943162560       0.62524674280333303       -6.0796734824167947E-004
 Bq   1.7936902658349412      -0.81011511723633600       0.35547116300509990       -1.0507854637525904E-004
 Bq   1.8884054971454349       0.20726704210936933       0.62524674280333303       -6.8198188115424496E-004
 Bq   1.7936902658349412       0.81011902837265781       0.35547116300509990       -6.0511905145824163E-004
 Bq   1.9292377603448501       0.41794081012069950       0.32146932089461544       -3.4728898041182232E-004
 Bq  0.38642506288830325        1.8600357544211621       0.62524674280333303       -6.6512193660216157E-004
 Bq  0.41462804611472731        1.9562476892860206       -3.4395743215827605E-002  -3.1400791118190580E-004
 Bq -0.21618985804761010        1.9562476892860206       0.35547116300509990       -1.4397531015000742E-004
 Bq  0.19868028425129339        1.9639711741960397       0.32146932089461544       -4.6958392401359739E-004
 Bq  -1.6495887376922294       0.94230092699482848       0.62524674280333303       -5.2469008268146017E-004
 Bq  -1.7323766433752261       0.99885469655093362       -3.4395743215827605E-002  -1.2374720489461560E-004
 Bq  -1.9273100748009624       0.39891123942990792       0.35547116300509990       -5.6384167212682884E-004
 Bq  -1.8064536914754852       0.79586287339691464       0.32146932089461544       -5.5204913534347838E-004
 Bq  0.78066665788137779       -1.7319348111365525       0.62524674280333303       -4.8106768802212707E-004
 Bq  0.81440197497638589       -1.8263491372816445       -3.4395743215827605E-002  -6.3588883280837893E-004
 Bq   1.3247443900247127       -1.4555638253843370       0.35547116300509990       -5.4841149232625480E-004
 Bq  0.99364714470416726       -1.7056668626053306       0.32146932089461544       -5.3328095185607022E-004
 Bq   1.6495783921058298       0.94230092699482848      -0.62526768630750773        1.9192646007138228E-004
 Bq   1.7323662977888266       0.99885469655093362        3.4374847023785821E-002  -5.3083198445581792E-004
 Bq  -1.8884158427318345       0.20726704210936933      -0.62526768630750773       -7.7826085983712795E-004
 Bq  -1.9886340428470770       0.21017555548092109        3.4374847023785821E-002  -6.7174045635750440E-004
 Bq  -1.7937006114213407       0.81011902837265781      -0.35549204342643076       -2.2099196813094718E-004
 Bq  -1.9292481059312496       0.41794081012069950      -0.32149020131594624       -7.1433572151077124E-004
 Bq   1.4852923725662102       -1.3389187265519180        3.4374847023785821E-002  -1.9315474432823193E-004
 Bq  0.97495014676641500       -1.7097041646149131      -0.35549204342643076       -5.9107663272941341E-004
 Bq   1.3151269058094481       -1.4720982172675190      -0.32149020131594624       -1.1954497056616969E-003
 Bq   1.4059238093539541        1.2776628879772149      -0.62526768630750773       -6.5708834814660194E-004
 Bq  0.97495014676641500        1.7097082019169227      -0.35549204342643076       -5.9200495059560931E-004
 Bq   1.4852923725662102        1.3389227638539276        3.4374847023785821E-002  -5.4240780984556036E-004
 Bq   1.3151269058094481        1.4721022545695284      -0.32149020131594624       -5.8926609775067362E-004
 Bq  -1.8884158427318345      -0.20726309943162560      -0.62526768630750773       -6.3972623825441638E-004
 Bq  -1.9886340428470770      -0.21017161280317737        3.4374847023785821E-002  -5.6676541140495557E-004
 Bq  -1.9292481059312496      -0.41793683590153380      -0.32149020131594624       -2.6944556033203781E-004
 Bq  0.21617963862689835       -1.9562436519840110      -0.35549204342643076       -4.5562152146024631E-004
 Bq  -1.7121056023164880       0.33536388500912540      -0.97788804097251314       -7.4175714130372827E-004
 Bq  0.75396053591642842       -1.7097041646149131      -0.71306071099119661       -7.5619930636214999E-004
 Bq  0.63348504680241779       -1.3389187265519180       -1.3438786782363779       -6.6601057552483772E-004
 Bq  0.87568001871214152       -1.4720982172675190       -1.0325302111099248       -4.7687299176737974E-004
 Bq   1.1879923916933823        1.2776628879772149      -0.97788804097251314       -7.3897534734158887E-004
 Bq  0.63348504680241779        1.3389227638539276       -1.3438786782363779       -7.4130582014364510E-004
 Bq  0.75396053591642842        1.7097082019169227      -0.71306071099119661       -5.7315223943572857E-004
 Bq  0.87568001871214152        1.4721022545695284       -1.0325302111099248       -7.3310753315523197E-004
 Bq  -1.7121056023164880      -0.33535991078995969      -0.97788804097251314       -5.5906519762888296E-004
 Bq  -1.2995073413285001      -0.71085154979782816       -1.3438786782363779       -1.7097868166899427E-004
 Bq  0.27448843598313777       -1.4555638253843370       -1.3438786782363779       -7.9453691485119327E-004
 Bq  0.39496395663857026       -1.8263491372816445      -0.71306071099119661       -7.4093062616373967E-004
 Bq  0.15682948545427319       -1.7056668626053306       -1.0325302111099248       -6.6926174245294373E-004
 Bq   1.2969580374408245       0.94230092699482848       -1.1958193324673971       -3.9248047822382920E-004
 Bq  0.74397982068598922       0.99885469655093362       -1.5648682260035207       -8.3110874707115201E-004
 Bq   1.0954034307193730       0.79586287339691464       -1.4719769720415437       -5.2538624014901447E-004
 Bq  -1.6031399565690458        1.9720530971803928E-006  -1.1958193324673971       -7.9779491060647661E-004
 Bq  -1.1890125674449288       0.37078745671399999       -1.5648682260035207       -5.4677098060147700E-004
 Bq  -1.1890125674449288      -0.37078348249483428       -1.5648682260035207       -6.7830899168012243E-004
 Bq  -1.3540046101734742        1.9720530971803928E-006  -1.4719769720415437       -7.4237345660408544E-004
 Bq -0.72006656546901249       -1.0162322537256792       -1.5648682260035207       -3.2837399443619991E-004
 Bq  -1.4790670697147098E-002  -1.2453902097008660       -1.5648682260035207       -6.9831390889664446E-004
 Bq -0.41841396299136940       -1.2877280080527920       -1.4719769720415437       -3.6239278571045114E-004
 Bq  0.74397982068598922      -0.99885078541461181       -1.5648682260035207       -3.0152865477176688E-004
 Bq  0.28527077645243271       0.20726704210936933       -1.9686798038304032       -5.9062472912285030E-004
 Bq  0.48420744515204556       0.81011902837265781       -1.7633166334913495       -7.6680907504796808E-004
 Bq  0.92009191788864675       0.21017555548092109       -1.7633166334913495       -2.0919708747360599E-004
 Bq  0.57523832296457578       0.41794081012069950       -1.8693477915062642       -6.9541822832341893E-004
 Bq -0.10897081065528628       0.33536388500912540       -1.9686798038304032       -5.6841756898529799E-004
 Bq -0.62084236172509799       0.71085546093414997       -1.7633166334913495       -2.5350213339964817E-004
 Bq   8.4433547831808925E-002  0.94001341690933660       -1.7633166334913495       -5.2939962966108700E-004
 Bq -0.21972855325900917       0.67624114749224296       -1.8693477915062642       -5.0566613932212512E-004
 Bq -0.35262552745820519        1.9720530971803928E-006  -1.9686798038304032       -4.9012031874666462E-004
 Bq -0.86791616078202660      -0.37078348249483428       -1.7633166334913495       -5.7771892661231256E-004
 Bq -0.86791616078202660       0.37078745671399999       -1.7633166334913495       -5.3745904809224948E-004
 Bq -0.71104508796291255        1.9720530971803928E-006  -1.8693477915062642       -5.5946358488822429E-004
 Bq -0.10897081065528628      -0.33535991078995969       -1.9686798038304032       -4.8276669008669865E-004
 Bq   8.4433547831808925E-002 -0.94000950577301479       -1.7633166334913495       -6.4203059767566073E-004
 Bq -0.62084236172509799      -0.71085154979782816       -1.7633166334913495       -5.6267456718561010E-004
 Bq -0.21972855325900917      -0.67623723635592126       -1.8693477915062642       -5.3858168657792971E-004
 Bq  0.28527077645243271      -0.20726309943162560       -1.9686798038304032       -5.4122987015831070E-004
 Bq  0.48420744515204556      -0.81011511723633600       -1.7633166334913495       -5.7557882867107640E-004
 Bq  0.57523832296457578      -0.41793683590153380       -1.8693477915062642       -4.3505189562405983E-004
 Bq -0.86429343922255308       0.73968823173264686       -1.6537129678607057        9.9445903166860833E-005
 Bq  0.91038920875127372      -0.78953320392285997        1.6024059245974287        1.1020349127567955E-004
 Bq  0.84923897085725886      -0.81047979915692037       -1.6255454687339752        1.3162485525884671E-004
 Bq  -1.5054513784941825       -1.4622118739715537       0.60513157945187102        2.2605931906206217E-004
 Bq  -1.1460154272085628       -1.4989717611001780       0.84501330347579173        1.6184402765606447E-004
 Bq  -1.3744408021175418       -1.3670271801367582       0.78463400101707548        1.1534245979671551E-004
 Bq  -1.6908806224922981       -1.3274896292255409       0.46347621474705886        2.4448894224330525E-004
 Bq  -1.8707850710216753      -0.97239579625122730       0.29133849441719378        2.2209514585366102E-004
 Bq  -1.7483488409535737       -1.0953669688355989       0.49899362218223425        1.9816006384289903E-004
 Bq -0.52584732646048704       -1.9754764755978476       0.46347621474705886        1.2614023877278134E-004
 Bq -0.84084611389061970       -1.7958353348589076       0.70137007219401137        1.3009791576338095E-004
 Bq -0.91915513765673584       -2.0368457371258821       0.29133849441719378        3.0421571764340828E-004
 Bq -0.76436775425447367       -1.9584022207365719       0.49899362218223425        2.0820581367598893E-004
 Bq  -1.4346237276831983       -1.6801970382151281       0.46347621474705886        3.0062071580362441E-004
 Bq  -1.1525028668752106       -1.9610264670428006       0.29133849441719378        3.5148035641978728E-004
 Bq  -1.0741938431090945       -1.7200160647758258       0.70137007219401137        1.8802718489290167E-004
 Bq  -1.2316206127001212       -1.8065826328084162       0.49899362218223425        2.8726469721325476E-004
 Bq  -1.7346545648684453       -1.4622118739715537       0.23427302837279604        3.2996378365920953E-004
 Bq  -1.9151734402974061       -1.1090085076632270        5.8918887310304667E-002   2.7025243209746232E-004
 Bq  -1.7884667540286683       -1.4989717611001780      -0.19449456408072577        4.0821313320478503E-004
 Bq  -1.8366166271204518       -1.3670271801367582        3.6817686784347561E-002   3.4657507499368488E-004
 Bq -0.41124570173193370       -2.0587393950954094       0.23427302837279604        1.7847443730282034E-004
 Bq -0.80294537353006867       -2.1212772032238423        5.8918887310304667E-002   3.2243766790771705E-004
 Bq -0.39291379575325108       -2.1212772032238423      -0.19449456408072577        2.1482563066538632E-004
 Bq -0.53327984175301868       -2.1262973359413828        3.6817686784347561E-002   2.4528135482915908E-004
 Bq  -1.5762790293051665       -1.6801970382151281       0.23427302837279604        3.6799778493250800E-004
 Bq  -1.6278686837091145       -1.7200160647758258      -0.19449456408072577        4.4661499674706999E-004
 Bq  -1.2961461612398348       -1.9610264670428006        5.8918887310304667E-002   4.1730049066648900E-004
 Bq  -1.5172609915349626       -1.8065826328084162        3.6817686784347561E-002   4.2649554602738719E-004
 Bq -0.13306076880338166       -2.0368457371258821      -0.19449456408072577        1.7164780790756770E-004
 Bq  -1.8898921074447759      -0.71499533564791340      -0.57856127484983777        1.1567070042241105E-004
 Bq  -1.9550339753693899      -0.71310474281623859      -0.14979368239631591        1.4319771400127246E-004
 Bq  -1.9164330785243957      -0.57805736909276673      -0.38110591749067829        1.7161954340764139E-004
 Bq  -1.1698618776938496       -1.9754764755978476      -0.57856127484983777        4.2679210263192775E-004
 Bq  -1.1917898527304582       -2.0368457371258821      -0.14979368239631591        4.3390178872534761E-004
 Bq  -1.5235123751997377       -1.7958353348589076      -0.40320711801663539        4.6257949742808599E-004
 Bq  -1.3082991972828051       -1.9584022207365719      -0.38110591749067829        4.5581555649046139E-004
 Bq  -1.8898921074447759      -0.98443982513993877      -0.57856127484983777        2.4553805413925038E-004
 Bq  -1.8283272891006521       -1.3762936714085647      -0.40320711801663539        3.8545802413840827E-004
 Bq  -1.9550339753693899      -0.98633041797161358      -0.14979368239631591        2.4668613502164781E-004
 Bq  -1.9164330785243957       -1.1213777916950853      -0.38110591749067829        3.0382758246165140E-004
 Bq -0.91360491980190617       -2.0587393950954094      -0.57856127484983777        3.7865001550657119E-004
 Bq -0.52190524800377114       -2.1212772032238423      -0.40320711801663539        2.7240466234775169E-004
 Bq -0.93193685732201070       -2.1212772032238423      -0.14979368239631591        3.8627921003290232E-004
 Bq -0.79157077978082113       -2.1262973359413828      -0.38110591749067829        3.5586883901912551E-004
 Bq  -1.7752905142576445      -0.63173235306750786      -0.80776446122410051        1.2543406318600223E-004
 Bq  -1.2136358200699970       -1.8407541046861471      -0.80776446122410051        4.0466815047577633E-004
 Bq  -1.5679006183097806       -1.6592223711155323      -0.63562677243565746        4.4042923142209069E-004
 Bq  -1.3628847821092387       -1.5102696461112437       -1.0456583186710531        3.4522902355161450E-004
 Bq  -1.3965668572839955       -1.6867420094354124      -0.84328186865927590        4.0961866702162418E-004
 Bq -0.17234769157578528       -1.9610264670428006      -0.63562677243565746        1.4855670982296537E-004
 Bq  -1.7752905142576445       -1.0677027446375005      -0.80776446122410051        2.6140530340081243E-004
 Bq  -1.5071016256905994       -1.3117722863365484       -1.0456583186710531        3.0486726212614751E-004
 Bq  -1.7121173357254533       -1.4607248851751493      -0.63562677243565746        4.0176005267790124E-004
 Bq  -1.6853451029400970       -1.2892730330655842      -0.84328186865927590        3.3823120477427006E-004
 Bq -0.79900326353193085       -1.9754764755978476      -0.80776446122410051        3.2533048490677834E-004
 Bq -0.48400450764322017       -1.7958353348589076       -1.0456583186710531        1.9578362650619213E-004
 Bq -0.40569545233568205       -2.0368457371258821      -0.63562677243565746        2.1977400473656601E-004
 Bq -0.56048286727936625       -1.9584022207365719      -0.84328186865927590        2.4625050208802214E-004
 Bq  -1.7044628634466603      -0.84971758039392609      -0.94941982592891272        1.6218664248505640E-004
 Bq  -1.4352800415911311       -1.0907281088265885       -1.1893016130356773        2.0810521572444361E-004
 Bq  -1.5425249135226764      -0.84971758039392609       -1.1289222474941172        1.2761251491794946E-004
 Bq -0.98443263369573419       -1.8407541046861471      -0.94941982592891272        3.4220065462768276E-004
 Bq  -1.1304652538559046       -1.5102696461112437       -1.1893016130356773        2.8316997578534987E-004
 Bq -0.67203591895219938       -1.6592223711155323       -1.1893016130356773        1.9452895512910712E-004
 Bq -0.93439103228108567       -1.6867420094354124       -1.1289222474941172        2.7944453287656948E-004
 Bq  -1.2265674245723777       -1.0907281088265885       -1.3182930337447754        1.3470011580991176E-004
 Bq -0.60754020859765034       -1.4607248851751493       -1.3182930337447754        1.6199279934921498E-004
 Bq  -1.0659694804185116       -1.3117722863365484       -1.3182930337447754        1.9294216685812431E-004
 Bq -0.80524556326718444       -1.2892730330655842       -1.3872133116876075        1.7703920569990192E-004
 Bq  -1.3096768004278874       -1.2539420985169762       0.88798275034368579        1.5941958781696963E-004
 Bq -0.39678149953700920       -1.9084964997676834       0.54248936921678370        1.2771241531723924E-004
 Bq -0.73564916340343522       -1.7152432168063725       0.79840952780514662        7.4486262988698870E-005
 Bq  -1.8641862270527005      -0.55250288752605081      -0.57850815909527420        7.4953460395096178E-005
 Bq  -1.9342642013467803      -0.55046909663872357      -0.11725089126774371        1.1551405851517940E-004
 Bq  -1.4904974641820645      -0.69743370273466843       -1.1705725690132240        4.6975941906616386E-005
 Bq  -1.1505983958178778      -0.95670671447630184       -1.3742929359314409        1.1049504542144997E-004
 Bq  -1.2194490303010446        1.7316788209560074       0.21337639475110423        1.9827836544676278E-004
 Bq -0.93732829565874476        2.0125082497836799        4.1238674421239192E-002   2.7076579449608097E-004
 Bq  -1.0164459153179677        1.8580642893836077       0.24889380218627963        1.9738422642833625E-004
 Bq -0.31067272370259913        2.0269582583387269       0.21337639475110423        1.5875770346009555E-004
 Bq -0.70398056644026985        2.0883275198667617        4.1238674421239192E-002   2.5177213505262093E-004
 Bq -0.54919318303800768        2.0098840034774512       0.24889380218627963        1.3296362186936660E-004
 Bq   8.2113833954506207E-002   2.0883275198667617      -0.44459438407668039        2.3041397582762926E-004
 Bq  -1.3611044580887006        1.7316788209560074       -1.5826791623158573E-002   2.5284079820938644E-004
 Bq  -1.0809715900233690        2.0125082497836799      -0.19118093268564995        3.4853754889882169E-004
 Bq  -1.4126939863269607        1.7714977213510172      -0.44459438407668039        3.6883482585746419E-004
 Bq  -1.3020864203184965        1.8580642893836077      -0.21328213321160705        3.3684125455009546E-004
 Bq -0.19607111474475677        2.1102210516706008       -1.5826791623158573E-002   2.0294069255654898E-004
 Bq -0.17773919299536323        2.1727588597990342      -0.44459438407668039        2.8227688940693323E-004
 Bq -0.58777073923075884        2.1727588597990342      -0.19118093268564995        3.0984354829824770E-004
 Bq -0.31810520745370885        2.1777789925165743      -0.21328213321160705        2.6797629606432373E-004
 Bq  -1.5194798674862915        1.5136935305467452       -1.5826791623158573E-002   2.2286673607030752E-004
 Bq  -1.5732920566465145        1.5504535438410574      -0.44459438407668039        3.0707268206854772E-004
 Bq  -1.6999987429152523        1.1604902904041063      -0.19118093268564995        1.7206137637311783E-004
 Bq  -1.6214420559039859        1.4185088367119498      -0.21328213321160705        2.1733590280082100E-004
 Bq -0.69843028550259634        2.1102210516706008      -0.82866109484579231        4.3245797110904628E-004
 Bq -0.71676222302270087        2.1727588597990342      -0.39989350239227056        3.8767441831693422E-004
 Bq -0.30673064524588328        2.1727588597990342      -0.65330693801258999        3.5086280248220782E-004
 Bq -0.57639620856435525        2.1777789925165743      -0.63120573748663289        4.0121506807434468E-004
 Bq  -1.6747174100626221        1.0359216078808180      -0.82866109484579231        1.8384280012137544E-004
 Bq  -1.7398592779872362        1.0378120745468051      -0.39989350239227056        1.6608202326109066E-004
 Bq  -1.6131525917184983        1.4277753279837562      -0.65330693801258999        3.0253769302879784E-004
 Bq  -1.7012583811422421        1.1728594482702770      -0.63120573748663289        2.0318267521782403E-004
 Bq  0.18647014246388297        2.0125082497836799      -0.65330693801258999        2.0290521469207290E-004
 Bq -0.95468730647738376        2.0269582583387269      -0.82866109484579231        4.5112643119008672E-004
 Bq  -1.3083378039832718        1.8473169914340990      -0.65330693801258999        4.2563327811213914E-004
 Bq -0.97661528151399224        2.0883275198667617      -0.39989350239227056        4.0658427873027474E-004
 Bq  -1.0931246260663392        2.0098840034774512      -0.63120573748663289        4.4030871068992568E-004
 Bq -0.58382869231546497        2.0269582583387269       -1.0578642812200552        4.1800900408548239E-004
 Bq -0.19052084957779419        2.0883275198667617      -0.88572652934876817        3.3523389917192517E-004
 Bq -0.26882993642675423        1.8473169914340990       -1.2957582017498517        3.2788125726629716E-004
 Bq -0.34530823298005636        2.0098840034774512       -1.0933816255723867        3.6984490111106536E-004
 Bq  -1.5601158168754907        1.1191845273783798       -1.0578642812200552        2.2932757219295240E-004
 Bq  -1.4969427645089872        1.5122066679160286      -0.88572652934876817        3.6171547037088664E-004
 Bq  -1.2919270544741335        1.3632540690774277       -1.2957582017498517        3.3490141913349557E-004
 Bq  -1.4701705317236311        1.3407546896407756       -1.0933816255723867        3.2381846958284312E-004
 Bq  0.32494764582440250        1.7316788209560074       -1.0578642812200552        1.2569896354467508E-004
 Bq  -3.5482144125435468E-002   1.7714977213510172       -1.2957582017498517        2.3452871774778603E-004
 Bq   4.2826911182102620E-002   2.0125082497836799      -0.88572652934876817        2.4723063225646526E-004
 Bq  0.12194453084132545        1.8580642893836077       -1.0933816255723867        2.0507248714900575E-004
 Bq -0.99846124885353105        1.8922358874270264       -1.0578642812200552        4.4860356811424196E-004
 Bq  -1.1477102108927728        1.5617514288521228       -1.2957582017498517        3.9656232898709412E-004
 Bq  -1.3527259209276268        1.7107041538564116      -0.88572652934876817        4.2274194664518143E-004
 Bq  -1.1813922860675297        1.7382237921762917       -1.0933816255723867        4.3479052606196743E-004
 Bq   3.6339471515454705E-002   1.5504535438410574       -1.4394013699487880        1.6116654329391758E-004
 Bq -0.76925799939642436        1.8922358874270264       -1.1995196459248674        4.2812870119833188E-004
 Bq -0.45686131619431153        1.7107041538564116       -1.4394013699487880        3.3921600538372801E-004
 Bq -0.91529055647375079        1.5617514288521228       -1.4394013699487880        3.7623821165582751E-004
 Bq -0.71921646106461967        1.7382237921762917       -1.3790220044072279        3.9199364878034909E-004
 Bq  -1.4892881660645068       0.90119930005196147       -1.1995196459248674        1.5637951235186742E-004
 Bq  -1.2201054703746652        1.1422097654017800       -1.4394013699487880        2.5511591119360168E-004
 Bq  -1.3273502161405226       0.90119930005196147       -1.3790220044072279        1.7220465557530457E-004
 Bq -0.13251257888989304        1.4277753279837562       -1.5683929168235740        1.8764885011764501E-004
 Bq -0.51807839036143810        1.1191845273783798       -1.7018789901605276        1.3589857782482506E-004
 Bq -0.85079490920204559        1.3632540690774277       -1.5683929168235740        2.9594097850596524E-004
 Bq -0.39236557429834051        1.5122066679160286       -1.5683929168235740        2.6212749467764522E-004
 Bq -0.59007092896787461        1.3407546896407756       -1.6373131947664059        2.5189231790734810E-004
 Bq -0.67645392592471676       0.90119930005196147       -1.7018789901605276        1.6817345424743890E-004
 Bq  -1.0113928533559116        1.1422097654017800       -1.5683929168235740        2.3809441680374549E-004
 Bq -0.90942662763620774       0.90119930005196147       -1.6373131947664059        1.3466226944528967E-004
 Bq -0.47676325953339244        1.9323834494387540       0.37542130163692022        9.4146156140655773E-005
 Bq -0.44329077710749254       0.97419126015430135       -1.7231712162963146        1.2867239828142849E-004
 Bq  0.37615940245196899       0.13513505887649249        2.3522888485670226        4.4762643988861470E-004
 Bq  0.71109826680031996      -0.10587545378545900        2.2188027752300692        3.9787891187710936E-004
 Bq  0.71109826680031996       0.37614558730915498        2.2188027752300692        4.2976962888972674E-004
 Bq  0.60913210416345998       0.13513505887649249        2.2877230531729009        4.3747423842171312E-004
 Bq  0.21778386688869034       0.35312028620291075        2.3522888485670226        4.5057723467997399E-004
 Bq  0.55050032264645399       0.59718976481911490        2.2188027752300692        4.3289471811021329E-004
 Bq   9.2071042940237269E-002  0.74614242674055964        2.2188027752300692        4.0936888596573504E-004
 Bq  0.28977640549512684       0.57469051154815054        2.2877230531729009        4.4371464053011289E-004
 Bq  -3.8473138315386145E-002  0.26985733516392713        2.3522888485670226        4.2728114229726583E-004
 Bq -0.16778196035356571       0.66171114989113111        2.2188027752300692        3.8601629689123847E-004
 Bq -0.45110686763235647       0.27174786491275804        2.2188027752300692        3.3942747167164770E-004
 Bq -0.22695202777756812       0.40679527017765182        2.2877230531729009        3.9509522506931717E-004
 Bq  -3.8473138315386145E-002   4.1278258905786270E-004   2.3522888485670226        4.0937475708917315E-004
 Bq -0.45110686763235647       -1.4777471597730517E-003   2.2188027752300692        3.1982613727223226E-004
 Bq -0.16778196035356571      -0.39144100059672421        2.2188027752300692        3.1166864863102321E-004
 Bq -0.22695202777756812      -0.13652515242466687        2.2877230531729009        3.5598767268395226E-004
 Bq  0.21778386688869034       -8.2850152679214806E-002   2.3522888485670226        4.2220822608186534E-004
 Bq   9.2071042940237269E-002 -0.47587230898757465        2.2188027752300692        3.2622589867574089E-004
 Bq  0.55050032264645399      -0.32691964706612991        2.2188027752300692        3.7255935151385422E-004
 Bq  0.28977640549512684      -0.30442039379516550        2.2877230531729009        3.8429296933260686E-004
 Bq   1.1889936425917589       0.13513505887649249        1.8499296304970501        2.4430117538617319E-004
 Bq  0.91981088381907350       0.37614558730915498        2.0898112283552832        3.7266349694095244E-004
 Bq  0.91981088381907350      -0.10587545378545900        2.0898112283552832        3.4018167211328880E-004
 Bq   1.0270556926677747       0.13513505887649249        2.0294319889794106        3.3365823675532078E-004
 Bq  0.46896347592367660        1.1261715831687136        1.8499296304970501        2.5733374844413327E-004
 Bq  0.15656677695085278       0.94463991268094261        2.0898112283552832        3.5496489883243137E-004
 Bq  0.61499603300100303       0.79568718767665392        2.0898112283552832        3.7961999829948419E-004
 Bq  0.41892187450902807       0.97215948791797890        2.0294319889794106        3.4676439663047093E-004
 Bq -0.69606985164955637       0.74762935245412010        1.8499296304970501        1.9611783951491504E-004
 Bq -0.61995888649628228       0.39442604922863733        2.0898112283552832        2.6980831354960627E-004
 Bq -0.33663402652962443       0.78438930266558848        2.0898112283552832        3.0798648748535905E-004
 Bq -0.56505933835575972       0.65244459553648071        2.0294319889794106        2.6078370918651735E-004
 Bq -0.33663402652962443      -0.51411918491260344        2.0898112283552832        2.1742647293744415E-004
 Bq -0.61995888649628228      -0.12415593147565233        2.0898112283552832        2.2551398121273790E-004
 Bq -0.56505933835575972      -0.38217447778349578        2.0294319889794106        1.9779345463573003E-004
 Bq  0.46896347592367660      -0.85590152849857237        1.8499296304970501        1.4884441966186469E-004
 Bq  0.61499603300100303      -0.52541706992366899        2.0898112283552832        2.9403752622799394E-004
 Bq  0.15656677695085278      -0.67436979492795757        2.0898112283552832        2.4700267848068794E-004
 Bq  0.41892187450902807      -0.70188937016499398        2.0294319889794106        2.4317351427719479E-004
 Bq  0.69816666229793933        1.1261715831687136        1.7082742027093940        2.0499577885901843E-004
 Bq  0.84741562433718109       0.79568718767665392        1.9461680601563467        3.2148759187845301E-004
 Bq   1.0524313974548789       0.94463991268094261        1.5361365139209511        1.3464145038138454E-004
 Bq  0.88109776259478179       0.97215948791797890        1.7437916101445694        2.3040783027948770E-004
 Bq -0.62524220083857218       0.96561451669769449        1.7082742027093940        1.5635460615964335E-004
 Bq -0.26481237934731233        1.0054334801755485        1.9461680601563467        2.5449077910478721E-004
 Bq -0.42223908585549519        1.0920001112909827        1.7437916101445694        1.3467740319311923E-004
 Bq -0.80799029780526155        1.2456874560613214E-002   1.9461680601563467        1.3600348244154070E-004
 Bq  -3.1464618587415512E-002 -0.81098263250564506        1.9461680601563467        1.3481258237367164E-004
 Bq   1.2598212934027431       -8.2850152679214806E-002   1.7082742027093940        1.7563856746913992E-004
 Bq  0.99163246791854176      -0.32691964706612991        1.9461680601563467        2.5936723073190400E-004
 Bq   1.1698760082508832      -0.30442039379516550        1.7437916101445694        1.8129385717000068E-004
 Bq   1.2598212934027431       0.35312028620291075        1.7082742027093940        2.0440136966536071E-004
 Bq   1.1966482410362396       0.74614242674055964        1.5361365139209511        1.3522037234492586E-004
 Bq  0.99163246791854176       0.59718976481911490        1.9461680601563467        3.1740364531969607E-004
 Bq   1.1698760082508832       0.57469051154815054        1.7437916101445694        2.1979847304062945E-004
 Bq  0.28353416884271715        1.2608939540804140        1.7082742027093940        1.8098778840959680E-004
 Bq  -3.1464618587415512E-002   1.0812528133414741        1.9461680601563467        2.7713107441411540E-004
 Bq   4.5013693736597624E-002   1.2438196992191384        1.7437916101445694        2.0402520912534555E-004
 Bq -0.80799029780526155       0.25781324319237175        1.9461680601563467        2.0508037225907758E-004
 Bq -0.26481237934731233      -0.73516336242256342        1.9461680601563467        1.2250181043887282E-004
 Bq  0.84741562433718109      -0.52541706992366899        1.9461680601563467        2.4112461583650560E-004
 Bq  0.88109776259478179      -0.70188937016499398        1.7437916101445694        1.5949384729861855E-004
 Bq  0.65439278300463599        1.2608939540804140        1.4790710163351313        1.4634260794810575E-004
 Bq  0.39813576202984857        1.3441568735779756        1.4790710163351313        1.3315823830874207E-004
 Bq  0.46702538171054525      -0.95521562529504400        1.7165863767186855        1.2870191684866833E-004
 Bq   1.0947056083001541       0.98176183225070757        1.3790156961228379        5.0441452432350292E-005
 Bq -0.49170805837456699        1.1402881358109065        1.6024059245974287        1.0148563187661191E-004
 Bq -0.90668952612224252       -2.1057400249370275E-002   1.8201174354641660        8.6464040854281402E-005
 Bq  -7.1322630345643331E-002 -0.90689303137666299        1.8201174354641660        6.7503963894093022E-005
 Bq   1.2498505452616400       0.76822318842509318        1.3790156961228379       -1.7047693289584664E-005
 Bq -0.32235232300210187      -0.82532855436825758        1.8201174354641660        6.5839191877954326E-005
 Bq   2.0755895796951531      -0.40460399297052901       0.15736494840400503        1.7032915865469733E-004
 Bq   2.0124165273286496      -0.79762616504959982       -1.4772771925859986E-002   2.1361449672812997E-004
 Bq   1.9856442945432933      -0.62617424985719072       0.19288235583918045        1.2893543909022094E-004
 Bq   2.0755895796951531        3.1366430140885589E-002  0.15736494840400503        1.4311604171635996E-004
 Bq   2.0124165273286496       0.42438857067853447       -1.4772771925859986E-002   1.7554739749240517E-004
 Bq   1.8681996837472890      -0.99612365098998279       -1.4772771925859986E-002   1.8781754561228436E-004
 Bq   2.1901911728822845      -0.32134104193154533       -7.1838237970257748E-002   2.5501736180188680E-004
 Bq   2.1286263545381607      -0.71319482511732735      -0.24719237903274913        3.0900023529545004E-004
 Bq   2.2553330408068986      -0.32323157168037625      -0.50060583042377960        3.9500589238952374E-004
 Bq   2.2167321439619045      -0.45827900848669206      -0.26929359532941721        3.3452494485386106E-004
 Bq   2.1901911728822845       -5.1896505127387076E-002  -7.1838237970257748E-002   2.3369074218270759E-004
 Bq   2.2553330408068986       -5.0005975378556160E-002 -0.50060583042377960        3.7063262131408099E-004
 Bq   2.1286263545381607       0.33995729382910594      -0.24719237903274913        2.1779125924326417E-004
 Bq   2.2167321439619045        8.5041429886337658E-002 -0.26929359532941721        2.8510270811311911E-004
 Bq   1.4920889181679666       -1.3737468908346449      -0.50060583042377960       -2.8537310711992947E-005
 Bq   1.8238115668029340       -1.1327364885676703      -0.24719237903274913        2.1602096803905423E-004
 Bq   1.6085983888860014       -1.2953033744453346      -0.26929359532941721        1.3672440907582482E-004
 Bq   2.0349536303059539       0.42587549639209493      -0.88467254119289152        3.0445918656229164E-004
 Bq   2.0887658194661767       0.46263544660356326      -0.45590494873936971        2.3760353669006508E-004
 Bq   2.2154725057349145        7.2672208937323124E-002 -0.70931838435968919        3.9132967302212517E-004
 Bq   2.1369156925579604       0.33069073947445560      -0.68721718383373209        3.2159088405210590E-004
 Bq   1.8765782209083630       -1.0170982550067347      -0.88467254119289152        3.6221465782127621E-004
 Bq   1.9281677491466229       -1.0569172184845885      -0.45590494873936971        3.0217061178428734E-004
 Bq   1.5964453528430314       -1.2979276207515633      -0.70931838435968919        2.3254406507941527E-004
 Bq   1.8175601831381589       -1.1434837865171790      -0.68721718383373209        3.0464126320026673E-004
 Bq   1.8765782209083630       0.64386066063566927      -0.88467254119289152        2.0868059547623878E-004
 Bq   1.9281677491466229       0.68367962411352323      -0.45590494873936971        1.4286489056610993E-004
 Bq   1.8175601831381589       0.77024619214611356      -0.68721718383373209        1.6655992951637201E-004
 Bq   2.0349536303059539      -0.79911309076316028      -0.88467254119289152        4.1665065650926120E-004
 Bq   2.2154725057349145      -0.44590978753767752      -0.70931838435968919        4.3946351868148943E-004
 Bq   2.0887658194661767      -0.83587304097462867      -0.45590494873936971        3.5527199880855398E-004
 Bq   2.1369156925579604      -0.70392833384552089      -0.68721718383373209        4.1646496642527148E-004
 Bq   1.9911798140954944       0.29115318856323835       -1.1138757275671543        3.4949010475154862E-004
 Bq   2.1710843887905598       -6.3940597098942425E-002 -0.94173803877871121        4.3597592323541511E-004
 Bq   1.9176708900873962       -6.3940597098942425E-002  -1.3517695850141069        4.1182435871236524E-004
 Bq   2.0486480325567697        5.9030559714718156E-002  -1.1493931350023296        4.1522056093419059E-004
 Bq   1.7349227931207070       -1.0170982550067347       -1.1138757275671543        3.4854957367807214E-004
 Bq   1.4528020584784069       -1.2979276207515633      -0.94173803877871121        2.0756698491406281E-004
 Bq   1.3744930347122910       -1.0569172184845885       -1.3517695850141069        2.5140783040993389E-004
 Bq   1.5319196781376299       -1.1434837865171790       -1.1493931350023296        2.7500242438419781E-004
 Bq   1.7349227931207070       0.64386066063566927       -1.1138757275671543        1.9320092912483017E-004
 Bq   1.3744930347122910       0.68367962411352323       -1.3517695850141069        1.5774359302285490E-004
 Bq   1.5319196781376299       0.77024619214611356       -1.1493931350023296        1.4715348787685059E-004
 Bq   1.1411451793281282       -1.1327364885676703       -1.3517695850141069        1.4443188125837919E-004
 Bq   1.2194543292599322       -1.3737468908346449      -0.94173803877871121        1.4990778073606728E-004
 Bq   1.9911798140954944      -0.66439078293430376       -1.1138757275671543        4.3680032646042054E-004
 Bq   1.9176708900873962      -0.30929694995999002       -1.3517695850141069        4.3626580847341660E-004
 Bq   2.1710843887905598      -0.30929694995999002      -0.94173803877871121        4.5973405282624495E-004
 Bq   2.0486480325567697      -0.43226812254436153       -1.1493931350023296        4.5864325713805380E-004
 Bq   1.8057504439316909       0.42587549639209493       -1.2555310291891226        2.8034365013062876E-004
 Bq   1.7296394787784171        7.2672208937323124E-002  -1.4954128793787311        3.4438682672257442E-004
 Bq   1.4463146188117590       0.46263544660356326       -1.4954128793787311        1.7029442447571812E-004
 Bq   1.6747399937207383       0.33069073947445560       -1.4350335138371710        2.7239447156752333E-004
 Bq   1.8057504439316909      -0.79911309076316028       -1.2555310291891226        3.9548432753215568E-004
 Bq   1.4463146188117590      -0.83587304097462867       -1.4954128793787311        2.9646229012100789E-004
 Bq   1.7296394787784171      -0.44590978753767752       -1.4954128793787311        3.9534702727759934E-004
 Bq   1.6747399937207383      -0.70392833384552089       -1.4350335138371710        3.7280839272275934E-004
 Bq   1.1481536832853878       -5.1896505127387076E-002  -1.7578903734247828        1.3104816028004090E-004
 Bq   1.2774625368649895       0.33995729382910594       -1.6244043000878292        1.2888246951528286E-004
 Bq   1.5607873968316472       -5.0005975378556160E-002  -1.6244043000878292        3.0375449223906011E-004
 Bq   1.3366326042889918        8.5041429886337658E-002  -1.6933245780306612        2.0592773771514403E-004
 Bq   1.0176095414565420      -0.79762616504959982       -1.6244043000878292        1.5553710937322995E-004
 Bq   1.1481536832853878      -0.32134104193154533       -1.7578903734247828        1.9508565426745381E-004
 Bq   1.5607873968316472      -0.32323157168037625       -1.6244043000878292        3.3031293320539244E-004
 Bq   1.2774625368649895      -0.71319482511732735       -1.6244043000878292        2.3903157413577604E-004
 Bq   1.3366326042889918      -0.45827900848669206       -1.6933245780306612        2.6022769457837401E-004
 Bq   1.8906241207653884      -0.62603647692611364       0.32944188841377270        4.3501456561963192E-005
 Bq   1.9873851287035502        8.1327790178093662E-002  0.29123324069214712        8.2265359631794599E-005
 Bq   1.3596709635439232       -1.4302547360803910      -0.41659377061348668        9.5788962256614096E-004
 Bq   1.4850084997686614       -1.3458674279731606      -0.16775436160935958        2.1075597791168649E-004
 Bq   1.8287925881572564       0.78306853716285985      -0.36850578179156879        7.7492543403865494E-005
 Bq   1.7098039616739624       0.87619452238698770      -0.61734517502498487       -1.6507684532569844E-004
 Bq  0.98213528268659389       -1.1709823551671967       -1.3322525101056581        1.1618861703809047E-004
 Bq  0.98967481802380153       -8.2442022449894549E-003  -1.7691461190961233        1.1446430214164319E-004
 Bq   1.1287816989179087       0.41330138236609409       -1.6255454687339752        4.7445178857088988E-005
