                  289
 cosmo charges (= -Bq-charge) (coordinates in Angstrom) format: Bq x y z q
 Bq   1.9648263573641762       0.26403442252948889       0.26404722935143343       -3.9791883319187267E-006
 Bq   1.6888201733474306       0.28170102913452505        1.0336976250559406       -1.4845204812257843E-003
 Bq   1.6888201733474306        1.0336848182339962       0.28171383595646959       -1.0954120811183380E-003
 Bq   1.8440660466695622       0.54744496912878049       0.54745777595072487       -1.3440831101201444E-003
 Bq  0.26402828204867823        1.9648324978449869       0.26404722935143343       -8.3682875558931092E-004
 Bq   1.0336786777531854        1.6888263138282411       0.28171383595646959       -9.8410113950880970E-004
 Bq  0.28169488865371439        1.6888263138282411        1.0336976250559406       -1.3471573613367067E-003
 Bq  0.54743882864796978        1.8440721871503727       0.54745777595072487       -1.1381116350544346E-003
 Bq   1.3549887641989149       0.57268766396806114        1.3550077115016699       -3.4946740489817806E-005
 Bq   1.3549887641989149        1.3549949046797254       0.57270047079000552       -1.1159551000121241E-003
 Bq  0.57268152348725043        1.3549949046797254        1.3550077115016699       -4.9712056194821733E-005
 Bq   1.1546934145365482        1.1546995550173587        1.1547123618393031       -9.7049754570631549E-004
 Bq  -1.0336929254385925       0.28170102913452505        1.6888391206501856       -2.5412697038954419E-004
 Bq -0.26404252973408510        1.9648324978449869       0.26404722935143343        8.9798500632441288E-005
 Bq -0.28170913633912126        1.6888263138282411        1.0336976250559406       -1.5689112172359513E-003
 Bq -0.54745307633337670        1.8440721871503727       0.54745777595072487       -6.7165822056575143E-004
 Bq  -1.9648406050495830       0.26403442252948889       0.26404722935143343       -9.1835182532065923E-004
 Bq  -1.6888344210328372        1.0336848182339962       0.28171383595646959       -7.3510610173342465E-004
 Bq  -1.6888344210328372       0.28170102913452505        1.0336976250559406       -9.7978805566995334E-004
 Bq  -1.8440802943549688       0.54744496912878049       0.54745777595072487       -9.4428579074923096E-004
 Bq -0.57269577117265735        1.3549949046797254        1.3550077115016699       -1.1107920444049307E-003
 Bq  -1.3550030118843215        1.3549949046797254       0.57270047079000552       -8.6465654203825456E-004
 Bq  -1.3550030118843215       0.57268766396806114        1.3550077115016699       -1.1425375276844240E-003
 Bq  -1.1547076622219548        1.1546995550173587        1.1547123618393031       -1.5471011810983192E-003
 Bq  -1.0336929254385925      -0.28170299585831060        1.6888391206501856       -8.1251109212758369E-004
 Bq -0.28170913633912126       -1.0336867849577818        1.6888391206501856       -9.0310802767071935E-004
 Bq -0.54745307633337670      -0.54744693585256599        1.8440849939723174        1.6320417384231740E-005
 Bq  -1.9648406050495830      -0.26403638925327444       0.26404722935143343       -7.6210132917811223E-004
 Bq  -1.6888344210328372      -0.28170299585831060        1.0336976250559406       -1.1155378149279955E-003
 Bq  -1.8440802943549688      -0.54744693585256599       0.54745777595072487       -5.4832456411263322E-004
 Bq -0.26404252973408510       -1.9648344645687723       0.26404722935143343        5.9387060985192894E-005
 Bq -0.28170913633912126       -1.6888282805520267        1.0336976250559406       -1.1570599551084214E-003
 Bq -0.54745307633337670       -1.8440741538741583       0.54745777595072487        4.3798822596601676E-006
 Bq  -1.3550030118843215      -0.57268963069184664        1.3550077115016699       -1.4788407394313084E-003
 Bq -0.57269577117265735       -1.3549968714035110        1.3550077115016699       -1.5737001280686962E-003
 Bq  -1.1547076622219548       -1.1547015217411443        1.1547123618393031       -1.2141847467580875E-003
 Bq  0.28169488865371439       -1.0336867849577818        1.6888391206501856       -1.6393870028129015E-004
 Bq  0.26402828204867823       -1.9648344645687723       0.26404722935143343       -8.4821223145222250E-004
 Bq  0.28169488865371439       -1.6888282805520267        1.0336976250559406       -1.1298704982804740E-003
 Bq   1.0336786777531854       -1.6888282805520267       0.28171383595646959       -1.0320573154307647E-003
 Bq  0.54743882864796978       -1.8440741538741583       0.54745777595072487       -9.1950013015397122E-004
 Bq   1.9648263573641762      -0.26403638925327444       0.26404722935143343        2.6798057499009277E-005
 Bq   1.6888201733474306       -1.0336867849577818       0.28171383595646959       -2.9792359356390822E-004
 Bq   1.6888201733474306      -0.28170299585831060        1.0336976250559406       -1.5271435476904315E-003
 Bq   1.8440660466695622      -0.54744693585256599       0.54745777595072487       -1.0321307169098095E-003
 Bq  0.57268152348725043       -1.3549968714035110        1.3550077115016699       -1.1270632937266441E-003
 Bq   1.3549887641989149       -1.3549968714035110       0.57270047079000552       -1.1845167501199671E-003
 Bq   1.3549887641989149      -0.57268963069184664        1.3550077115016699       -9.0272059483973365E-004
 Bq   1.1546934145365482       -1.1547015217411443        1.1547123618393031       -1.2918144320913348E-003
 Bq  0.26402828204867823       0.26403442252948889       -1.9648216577468278       -9.2820993041637203E-004
 Bq   1.0336786777531854       0.28170102913452505       -1.6888154737300820        3.7811100284360258E-005
 Bq  0.28169488865371439        1.0336848182339962       -1.6888154737300820       -1.1643385407169367E-003
 Bq  0.54743882864796978       0.54744496912878049       -1.8440613470522138       -1.3617405373134810E-003
 Bq   1.6888201733474306        1.0336848182339962      -0.28169018903636606       -6.3431661454680884E-004
 Bq  0.26402828204867823        1.9648324978449869      -0.26402358243132995        1.2707615394259926E-004
 Bq   1.0336786777531854        1.6888263138282411      -0.28169018903636606       -1.1813856618552471E-003
 Bq  0.28169488865371439        1.6888263138282411       -1.0336739781358373        6.6979013110267934E-006
 Bq  0.54743882864796978        1.8440721871503727      -0.54743412903062150       -6.4088911152406349E-004
 Bq   1.3549887641989149       0.57268766396806114       -1.3549840645815663        3.4528264366260644E-007
 Bq   1.3549887641989149        1.3549949046797254      -0.57267682386990226       -1.2376199837018194E-003
 Bq  0.57268152348725043        1.3549949046797254       -1.3549840645815663       -1.2836918661907745E-003
 Bq   1.1546934145365482        1.1546995550173587       -1.1546887149191996       -1.5439223962950719E-003
 Bq -0.26404252973408510       0.26403442252948889       -1.9648216577468278       -8.7167294971905653E-004
 Bq -0.28170913633912126        1.0336848182339962       -1.6888154737300820        1.0139073878459343E-004
 Bq  -1.0336929254385925       0.28170102913452505       -1.6888154737300820       -1.1226124135589003E-003
 Bq -0.54745307633337670       0.54744496912878049       -1.8440613470522138       -7.2244170502471351E-004
 Bq  -1.9648406050495830       0.26403442252948889      -0.26402358243132995       -1.1961642523539487E-003
 Bq  -1.6888344210328372        1.0336848182339962      -0.28169018903636606        4.4202535323830418E-005
 Bq  -1.6888344210328372       0.28170102913452505       -1.0336739781358373       -1.4342188202934520E-003
 Bq  -1.8440802943549688       0.54744496912878049      -0.54743412903062150       -8.9890295109029174E-004
 Bq  -1.3550030118843215       0.57268766396806114       -1.3549840645815663       -2.2916430757356811E-004
 Bq -0.26404252973408510      -0.26403638925327444       -1.9648216577468278       -7.3392494696878296E-004
 Bq  -1.0336929254385925      -0.28170299585831060       -1.6888154737300820       -1.2264304697705679E-003
 Bq -0.28170913633912126       -1.0336867849577818       -1.6888154737300820       -1.1962843297196140E-003
 Bq -0.54745307633337670      -0.54744693585256599       -1.8440613470522138       -8.9803995879435565E-004
 Bq  -1.9648406050495830      -0.26403638925327444      -0.26402358243132995       -8.6610469822419778E-004
 Bq  -1.6888344210328372      -0.28170299585831060       -1.0336739781358373       -1.2178676312899737E-003
 Bq  -1.8440802943549688      -0.54744693585256599      -0.54743412903062150        8.9428755726075264E-005
 Bq -0.28170913633912126       -1.6888282805520267       -1.0336739781358373        5.0623887887466911E-005
 Bq  -1.3550030118843215      -0.57268963069184664       -1.3549840645815663       -7.5034695351362118E-004
 Bq -0.57269577117265735       -1.3549968714035110       -1.3549840645815663        9.6372854033198861E-005
 Bq  0.26402828204867823      -0.26403638925327444       -1.9648216577468278       -8.4441856249892991E-004
 Bq  0.28169488865371439       -1.0336867849577818       -1.6888154737300820       -1.2366755562778519E-003
 Bq  0.54743882864796978      -0.54744693585256599       -1.8440613470522138       -7.2502526724959281E-004
 Bq  0.26402828204867823       -1.9648344645687723      -0.26402358243132995       -7.6664676101340838E-004
 Bq  0.28169488865371439       -1.6888282805520267       -1.0336739781358373       -1.4490549820151146E-003
 Bq   1.0336786777531854       -1.6888282805520267      -0.28169018903636606       -1.1531269383450375E-003
 Bq  0.54743882864796978       -1.8440741538741583      -0.54743412903062150       -1.3261070573431641E-003
 Bq  0.57268152348725043       -1.3549968714035110       -1.3549840645815663       -1.3220710209009663E-003
 Bq   1.3549887641989149       -1.3549968714035110      -0.57267682386990226        8.0076538258829998E-006
 Bq  -1.9395493484416748      -0.67811997651317324       -5.2611205686643790E-004   2.6170729571879230E-004
 Bq  -1.7601453354112901      -0.66663668264110454       0.49974662680116788        5.8006376578985239E-005
 Bq  -1.8610551493693259      -0.49390312798066777       0.18369073647563905        2.9954951262541877E-005
 Bq  -1.3343033788948213       -1.0328492854538489       0.92558858331763672        9.0802712218728986E-006
 Bq -0.84551393390885587       -1.5216387304398145       0.92558858331763672        3.6763963461537778E-005
 Bq  -1.0182474885692927       -1.2055828401142856        1.0264983972756723        8.2902747649356335E-008
 Bq  -1.9395493484416748       -1.0213659915817803       -5.2611205686643790E-004   3.7926144128769469E-004
 Bq  -1.7601453354112901       -1.0328492854538489       0.49974662680116788        3.3960436886230178E-004
 Bq  -1.7601453354112901       -1.5216387304398145        1.0957181815202338E-002   7.2183249122267207E-004
 Bq  -1.8610551493693259       -1.2055828401142856       0.18369073647563905        4.8496566309924843E-004
 Bq -0.83403064003678706       -2.1268846999866677       -5.2611205686643790E-004   5.0993814715306028E-004
 Bq  -1.3343033788948213       -1.9474806869562835        1.0957181815202338E-002   7.9240961885507753E-004
 Bq -0.84551393390885587       -1.9474806869562835       0.49974662680116788        4.2677913397428540E-004
 Bq  -1.0182474885692927       -2.0483905009143188       0.18369073647563905        5.9810897670310031E-004
 Bq  -1.5431549274239160       -1.2219905911579856       0.70859817533026248        3.0916875416034915E-004
 Bq  -1.5431549274239160       -1.7304902789689092       0.20009848751933879        7.5020374615774102E-004
 Bq  -1.0346552396129922       -1.7304902789689092       0.70859817533026248        3.8222271860407050E-004
 Bq  -1.4129629549187908       -1.6002983064637839       0.57840620282513744        5.6999033527441114E-004
 Bq -0.49078462496818021       -2.1268846999866677       -5.2611205686643790E-004   3.5815218240756175E-004
 Bq -0.47930133109611145       -1.9474806869562835       0.49974662680116788        2.2701583335539577E-004
 Bq   9.4881138898541273E-003  -1.9474806869562835        1.0957181815202338E-002   3.9926887808464945E-005
 Bq -0.30656777643567468       -2.0483905009143188       0.18369073647563905        2.1653298282248225E-004
 Bq -0.29016002539197494       -1.7304902789689092       0.70859817533026248        6.0529930365864696E-007
 Bq  -1.3343033788948213      -0.66663668264110454       -1.2698868224999766        9.9083149240888175E-005
 Bq  -1.9395493484416748      -0.67811997651317324      -0.34377212712547339        2.5642899546974527E-004
 Bq  -1.7601453354112901      -0.66663668264110454      -0.84404486598350770        2.5083163826501286E-004
 Bq  -1.8610551493693259      -0.49390312798066777      -0.52798897565797887        4.1064385183207526E-005
 Bq  -1.5431549274239160      -0.47749537693696803       -1.0528964145126023        2.1431724436009345E-005
 Bq -0.83403064003678706       -1.0213659915817803       -1.4492908355303613        2.2075525947689468E-005
 Bq  -1.3343033788948213       -1.0328492854538489       -1.2698868224999766        3.6899699667123547E-004
 Bq -0.84551393390885587       -1.5216387304398145       -1.2698868224999766        3.6468313984822196E-004
 Bq  -1.0182474885692927       -1.2055828401142856       -1.3707966364580122        2.8459348092563523E-004
 Bq  -1.9395493484416748       -1.0213659915817803      -0.34377212712547339        3.9688710238793993E-004
 Bq  -1.7601453354112901       -1.0328492854538489      -0.84404486598350770        4.8359973124104149E-004
 Bq  -1.7601453354112901       -1.5216387304398145      -0.35525542099754215        7.8245044758106191E-004
 Bq  -1.8610551493693259       -1.2055828401142856      -0.52798897565797887        5.8600891593915488E-004
 Bq -0.83403064003678706       -2.1268846999866677      -0.34377212712547339        5.5206634096854510E-004
 Bq  -1.3343033788948213       -1.9474806869562835      -0.35525542099754215        8.5297036218386232E-004
 Bq -0.84551393390885587       -1.9474806869562835      -0.84404486598350770        6.2792527510274201E-004
 Bq  -1.0182474885692927       -2.0483905009143188      -0.52798897565797887        7.1197188949086653E-004
 Bq  -1.5431549274239160       -1.2219905911579856       -1.0528964145126023        5.7361715680973068E-004
 Bq  -1.5431549274239160       -1.7304902789689092      -0.54439672670167860        8.8473763428431270E-004
 Bq  -1.0346552396129922       -1.7304902789689092       -1.0528964145126023        6.5171869539987660E-004
 Bq  -1.4129629549187908       -1.6002983064637839      -0.92270444200747714        8.4886352692992086E-004
 Bq -0.47930133109611145       -1.5216387304398145       -1.2698868224999766        8.0476254187522857E-005
 Bq -0.49078462496818021       -2.1268846999866677      -0.34377212712547339        3.9408810971746944E-004
 Bq -0.47930133109611145       -1.9474806869562835      -0.84404486598350770        3.9578670112346492E-004
 Bq   9.4881138898541273E-003  -1.9474806869562835      -0.35525542099754215        1.0186099870212046E-004
 Bq -0.30656777643567468       -2.0483905009143188      -0.52798897565797887        3.1017494994800419E-004
 Bq -0.29016002539197494       -1.7304902789689092       -1.0528964145126023        9.5599210038422219E-005
 Bq -0.27559347019976616        2.1783453906816961      -0.25059124795943943        3.7874477986909647E-004
 Bq  0.22467926865826818        1.9989413776513112      -0.23910795408737065        9.3212353577130263E-005
 Bq -0.26411017632769734        1.9989413776513112       0.24968149089859490        7.3058429110632096E-005
 Bq  -9.1376621667260641E-002   2.0998511916093467       -6.6374399426933919E-002   2.7333969860433421E-004
 Bq -0.61883948526837307        2.1783453906816961      -0.25059124795943943        4.9423999353380031E-004
 Bq -0.63032277914044188        1.9989413776513112       0.24968149089859490        3.4817419983603648E-004
 Bq  -1.1191122241264075        1.9989413776513112      -0.23910795408737065        6.6272612002104810E-004
 Bq -0.80305633380087860        2.0998511916093467       -6.6374399426933919E-002   4.8451007270236822E-004
 Bq  -1.7243581936732608        1.0728266822768080      -0.25059124795943943        1.3678180994416696E-004
 Bq  -1.5449541806428762        1.5730994211348424      -0.23910795408737065        5.0666533602203160E-004
 Bq  -1.5449541806428762        1.0843099761488770       0.24968149089859490        5.6233768222014568E-006
 Bq  -1.6458639946009117        1.2570435308093137       -6.6374399426933919E-002   3.1217251577285660E-004
 Bq -0.81946408484457822        1.7819509696639368       0.45853303942768953        9.7885993194279778E-005
 Bq  -1.3279637726555020        1.7819509696639368       -4.9966648383234190E-002   5.2743366714298322E-004
 Bq  -1.3279637726555020        1.2734512818530133       0.45853303942768953        2.3942212367506345E-006
 Bq  -1.1977718001503770        1.6517589971588118       0.32834106692256437        2.9384848117836927E-004
 Bq  -1.7243581936732608       0.72958066720820125      -0.25059124795943943        2.3256815735108201E-007
 Bq -0.27559347019976616        1.0728266822768080       -1.6993559714329340        6.8351549444572153E-005
 Bq  0.22467926865826818        1.0843099761488770       -1.5199519584025494        3.9827071033414764E-008
 Bq -0.26411017632769734        1.5730994211348424       -1.5199519584025494        4.6993424116602306E-004
 Bq  -9.1376621667260641E-002   1.2570435308093137       -1.6208617723605852        2.2784413940629409E-004
 Bq -0.27559347019976616        2.1783453906816961      -0.59383726302804629        4.9185218641919289E-004
 Bq  0.22467926865826818        1.9989413776513112      -0.60532055690011510        3.5822549280851735E-004
 Bq -0.26411017632769734        1.9989413776513112       -1.0941100018860805        6.4324902326446331E-004
 Bq  -9.1376621667260641E-002   2.0998511916093467      -0.77805411156055193        4.7604932227531086E-004
 Bq  0.43353081718736280        1.7819509696639368      -0.79446186260425156        9.8475489260950406E-005
 Bq  -7.4968870623560918E-002   1.7819509696639368       -1.3029615504151753        4.8999038494960305E-004
 Bq  0.30333884468223765        1.6517589971588118       -1.1727695779100500        2.1955050810792466E-004
 Bq -0.61883948526837307        1.0728266822768080       -1.6993559714329340        2.8404785896717348E-004
 Bq -0.63032277914044188        1.5730994211348424       -1.5199519584025494        6.1983533275524676E-004
 Bq  -1.1191122241264075        1.0843099761488770       -1.5199519584025494        4.5051756960636652E-004
 Bq -0.80305633380087860        1.2570435308093137       -1.6208617723605852        4.6479606510932181E-004
 Bq -0.61883948526837307        2.1783453906816961      -0.59383726302804629        6.0487297964623133E-004
 Bq -0.63032277914044188        1.9989413776513112       -1.0941100018860805        8.0279785661672336E-004
 Bq  -1.1191122241264075        1.9989413776513112      -0.60532055690011510        8.1426516906831425E-004
 Bq -0.80305633380087860        2.0998511916093467      -0.77805411156055193        7.7455928650034859E-004
 Bq  -1.7243581936732608        1.0728266822768080      -0.59383726302804629        2.8328656107464844E-004
 Bq  -1.5449541806428762        1.5730994211348424      -0.60532055690011510        6.4114302622619943E-004
 Bq  -1.5449541806428762        1.0843099761488770       -1.0941100018860805        4.4321772370475837E-004
 Bq  -1.6458639946009117        1.2570435308093137      -0.77805411156055193        4.7241240150253886E-004
 Bq -0.81946408484457822        1.7819509696639368       -1.3029615504151753        8.3063759741308662E-004
 Bq  -1.3279637726555020        1.7819509696639368      -0.79446186260425156        8.4220471104810173E-004
 Bq  -1.3279637726555020        1.2734512818530133       -1.3029615504151753        6.2138049900410891E-004
 Bq  -1.1977718001503770        1.6517589971588118       -1.1727695779100500        9.2093023822867760E-004
 Bq -0.61883948526837307       0.72958066720820125       -1.6993559714329340        5.2044016813264301E-005
 Bq  -1.1191122241264075       0.71809737333613244       -1.5199519584025494        1.7252911298786905E-004
 Bq -0.80305633380087860       0.54536381867569561       -1.6208617723605852        5.0972072817178779E-007
 Bq  -1.7243581936732608       0.72958066720820125      -0.59383726302804629        7.8691111185752021E-005
 Bq  -1.5449541806428762       0.71809737333613244       -1.0941100018860805        1.6184094246243186E-004
 Bq  -1.6458639946009117       0.54536381867569561      -0.77805411156055193        1.8766721922611965E-006
 Bq  -1.3279637726555020       0.52895606763199599       -1.3029615504151753        1.7674336615678525E-005
 Bq  0.31853790772012980       0.30679010672337487        2.3497986206824351        6.9185244784976494E-004
 Bq  0.81881064657816416       0.31827340059544368        2.1703946076520508        7.4717676319958448E-004
 Bq  0.33002120159219861       0.80706284558140917        2.1703946076520508        7.4205409896980015E-004
 Bq  0.50275475625263533       0.49100695525588034        2.2713044216100862        7.5117803568942887E-004
 Bq   1.4240566161250174       0.30679010672337487        1.2442799122775474        4.1691516407002266E-006
 Bq   1.2446526030946328       0.31827340059544368        1.7445526511355818        3.9370911294105642E-004
 Bq   1.2446526030946328       0.80706284558140917        1.2557632061496165        1.6896292142732408E-005
 Bq   1.3455624170526685       0.49100695525588034        1.4284967608100532        1.1835800331238922E-004
 Bq  0.31853790772012980        1.4123088151282626        1.2442799122775474        3.0350443425898097E-006
 Bq  0.81881064657816416        1.2329048020978779        1.2557632061496165        2.1580649986292084E-005
 Bq  0.33002120159219861        1.2329048020978779        1.7445526511355818        3.9437490928522737E-004
 Bq  0.50275475625263533        1.3338146160559134        1.4284967608100532        1.3668394856865995E-004
 Bq   1.0276621951072589       0.50741470629958008        1.9534041996646765        6.1706779945195961E-004
 Bq   1.0276621951072589        1.0159143941105038        1.4449045118537527        2.9842313659089623E-004
 Bq  0.51916250729633506        1.0159143941105038        1.9534041996646765        6.1526251349750666E-004
 Bq  0.89747022260213372       0.88572242160537873        1.8232122271595512        5.8948564681484013E-004
 Bq  -2.4708107348477108E-002  0.30679010672337487        2.3497986206824351        6.5487367130425940E-004
 Bq  -3.6191401220545885E-002  0.80706284558140917        2.1703946076520508        6.8889552988604327E-004
 Bq -0.52498084620651142       0.31827340059544368        2.1703946076520508        5.6880164642743867E-004
 Bq -0.20892495588098259       0.49100695525588034        2.2713044216100862        6.5370340177648074E-004
 Bq  -2.4708107348477108E-002   1.4123088151282626        1.2442799122775474        2.5322112527817056E-008
 Bq  -3.6191401220545885E-002   1.2329048020978779        1.7445526511355818        3.5133747084581201E-004
 Bq -0.20892495588098259        1.3338146160559134        1.4284967608100532        4.3196934025574770E-005
 Bq -0.95082280272298014       0.31827340059544368        1.7445526511355818        2.0357490145109147E-004
 Bq -0.22533270692468232        1.0159143941105038        1.9534041996646765        5.0258517488344361E-004
 Bq -0.73383239473560602        1.0159143941105038        1.4449045118537527        3.4455161722379808E-006
 Bq -0.73383239473560602       0.50741470629958008        1.9534041996646765        4.0320817692592829E-004
 Bq -0.60364042223048087       0.88572242160537873        1.8232122271595512        3.7204611568765846E-004
 Bq  -2.4708107348477108E-002  -3.6455908345232095E-002   2.3497986206824351        6.2019779214931897E-004
 Bq -0.52498084620651142       -4.7939202217300872E-002   2.1703946076520508        5.1467849548357720E-004
 Bq  -3.6191401220545885E-002 -0.53672864720326630        2.1703946076520508        5.1427495972708264E-004
 Bq -0.20892495588098259      -0.22067275687773757        2.2713044216100862        5.5831469933631344E-004
 Bq -0.95082280272298014       -4.7939202217300872E-002   1.7445526511355818        1.2645472461586112E-004
 Bq  -3.6191401220545885E-002 -0.96257060371973524        1.7445526511355818        1.2074293536802982E-004
 Bq -0.73383239473560602      -0.23708050792143731        1.9534041996646765        3.4905072374626013E-004
 Bq -0.22533270692468232      -0.74558019573236101        1.9534041996646765        3.4649912488075602E-004
 Bq -0.60364042223048087      -0.61538822322723585        1.8232122271595512        4.9641504285702912E-005
 Bq  0.31853790772012980       -3.6455908345232095E-002   2.3497986206824351        6.5768445057942920E-004
 Bq  0.33002120159219861      -0.53672864720326630        2.1703946076520508        5.7477545661673392E-004
 Bq  0.81881064657816416       -4.7939202217300872E-002   2.1703946076520508        6.9943547789638044E-004
 Bq  0.50275475625263533      -0.22067275687773757        2.2713044216100862        6.6216020411400301E-004
 Bq  0.33002120159219861      -0.96257060371973524        1.7445526511355818        1.8091221087296100E-004
 Bq   1.4240566161250174       -3.6455908345232095E-002   1.2442799122775474        2.5860652307462572E-007
 Bq   1.2446526030946328       -4.7939202217300872E-002   1.7445526511355818        3.6727392642290014E-004
 Bq   1.3455624170526685      -0.22067275687773757        1.4284967608100532        6.0792606026599797E-005
 Bq  0.51916250729633506      -0.74558019573236101        1.9534041996646765        4.1299991444913571E-004
 Bq   1.0276621951072589      -0.74558019573236101        1.4449045118537527        1.0216625824545913E-005
 Bq   1.0276621951072589      -0.23708050792143731        1.9534041996646765        5.2352666552024348E-004
 Bq  0.89747022260213372      -0.61538822322723585        1.8232122271595512        4.1425734718217300E-004
 Bq   2.2398575498326219       -1.5003798987902854E-002 -0.30668234558407936        4.6364001109079628E-004
 Bq   2.0604535368022372       -3.5205051158340786E-003  0.19359039327395497        1.6334808649171321E-004
 Bq   2.0604535368022372       0.48526893987013142      -0.29519905171201055        3.8064334700399521E-004
 Bq   2.1613633507602725       0.16921304954460265      -0.12246549705157386        3.3843466200134353E-004
 Bq   1.6346115802857684       0.91111089638660026      -0.29519905171201055        1.8670694311385355E-006
 Bq   1.8434631288148631       0.18562080058830238       0.40244194180304960        2.5017252944101658E-007
 Bq   1.8434631288148631       0.69412048839922602      -0.10605774600787413        6.9479700768224702E-005
 Bq   1.6346115802857684       -1.2843645094310130      -0.29519905171201055        3.1017136007787928E-004
 Bq   1.3185556899602395       -1.3852743233890485      -0.12246549705157386        5.9773418249201086E-006
 Bq   2.2398575498326219      -0.35824981405650980      -0.30668234558407936        5.1172550989814593E-004
 Bq   2.0604535368022372      -0.85852255291454416      -0.29519905171201055        5.5847566134407901E-004
 Bq   2.0604535368022372      -0.36973310792857861       0.19359039327395497        2.9640330809052937E-004
 Bq   2.1613633507602725      -0.54246666258901521      -0.12246549705157386        4.5671858947132511E-004
 Bq   1.8434631288148631       -1.0673741014436386      -0.10605774600787413        3.8662977612635458E-004
 Bq   1.8434631288148631      -0.55887441363271495       0.40244194180304960        1.3286867468368405E-004
 Bq   1.7132711563097378      -0.93718212893851360       0.27224996929792444        9.1867945308887286E-005
 Bq   1.1343388414277338       -1.5003798987902854E-002  -1.7554470690575741        2.0389831889566884E-004
 Bq   1.6346115802857684       -3.5205051158340786E-003  -1.5760430560271894        5.9577219143090363E-004
 Bq   1.1458221352998028       0.48526893987013142       -1.5760430560271894        1.8129682396797129E-005
 Bq   1.3185556899602395       0.16921304954460265       -1.6769528699852250        3.0389688980261755E-004
 Bq   2.2398575498326219       -1.5003798987902854E-002 -0.64992836065268633        5.9017957962594243E-004
 Bq   2.0604535368022372       -3.5205051158340786E-003  -1.1502010995107206        7.8748089463816185E-004
 Bq   2.0604535368022372       0.48526893987013142      -0.66141165452475514        5.0707430844847904E-004
 Bq   2.1613633507602725       0.16921304954460265      -0.83414520918519175        6.4507146852066800E-004
 Bq   1.6346115802857684       0.91111089638660026      -0.66141165452475514        9.0248221038701523E-005
 Bq   1.8434631288148631       0.18562080058830238       -1.3590526480398153        6.7754459681264626E-004
 Bq   1.8434631288148631       0.69412048839922602      -0.85055296022889149        4.1758327817483475E-004
 Bq   1.3349634410039390       0.69412048839922602       -1.3590526480398153        9.4191701331438691E-005
 Bq   1.7132711563097378       0.56392851589410087       -1.2288606755346902        4.9396221123167953E-004
 Bq  0.79109282635912703       -1.5003798987902854E-002  -1.7554470690575741        6.1538213638945557E-006
 Bq  0.79109282635912703      -0.35824981405650980       -1.7554470690575741        5.0619299795184409E-005
 Bq  0.77960953248705822      -0.85852255291454416       -1.5760430560271894        3.5455409330028530E-005
 Bq  0.77960953248705822       -1.2843645094310130       -1.1502010995107206        3.4440981093601370E-007
 Bq   1.1343388414277338      -0.35824981405650980       -1.7554470690575741        2.9537216710508359E-004
 Bq   1.1458221352998028      -0.85852255291454416       -1.5760430560271894        3.6431175607822041E-004
 Bq   1.6346115802857684      -0.36973310792857861       -1.5760430560271894        6.6717130294262383E-004
 Bq   1.3185556899602395      -0.54246666258901521       -1.6769528699852250        4.5308206449066422E-004
 Bq   1.1343388414277338       -1.4637685224613977      -0.64992836065268633        1.4902952365759006E-005
 Bq   1.1458221352998028       -1.2843645094310130       -1.1502010995107206        1.8216467443850798E-004
 Bq   1.6346115802857684       -1.2843645094310130      -0.66141165452475514        4.2756522842404501E-004
 Bq   1.3185556899602395       -1.3852743233890485      -0.83414520918519175        2.3260964609189363E-004
 Bq   2.2398575498326219      -0.35824981405650980      -0.64992836065268633        6.3717351697174340E-004
 Bq   2.0604535368022372      -0.85852255291454416      -0.66141165452475514        7.2308287182304290E-004
 Bq   2.0604535368022372      -0.36973310792857861       -1.1502010995107206        8.5325165081630305E-004
 Bq   2.1613633507602725      -0.54246666258901521      -0.83414520918519175        7.6823401101987416E-004
 Bq   1.3349634410039390       -1.0673741014436386       -1.3590526480398153        4.6508514199573289E-004
 Bq   1.8434631288148631       -1.0673741014436386      -0.85055296022889149        6.8896509005179787E-004
 Bq   1.8434631288148631      -0.55887441363271495       -1.3590526480398153        8.2865911110192056E-004
 Bq   1.7132711563097378      -0.93718212893851360       -1.2288606755346902        7.9778546474502227E-004
