                  289
 cosmo charges (= -Bq-charge) (coordinates in Angstrom) format: Bq x y z q
 Bq   1.9648263573641347       0.26403442252966136       0.26404722935175112       -3.9791883409259184E-006
 Bq   1.6888201733473889       0.28170102913469752        1.0336976250562584       -1.4845204812237601E-003
 Bq   1.6888201733473889        1.0336848182341687       0.28171383595678728       -1.0954120811200267E-003
 Bq   1.8440660466695207       0.54744496912895291       0.54745777595104261       -1.3440831101165914E-003
 Bq  0.26402828204863660        1.9648324978451592       0.26404722935175112       -8.3682875559250563E-004
 Bq   1.0336786777531439        1.6888263138284136       0.28171383595678728       -9.8410113951541249E-004
 Bq  0.28169488865367276        1.6888263138284136        1.0336976250562584       -1.3471573613316307E-003
 Bq  0.54743882864792814        1.8440721871505452       0.54745777595104261       -1.1381116350546487E-003
 Bq   1.3549887641988732       0.57268766396823367        1.3550077115019876       -3.4946740501342692E-005
 Bq   1.3549887641988732        1.3549949046798979       0.57270047079032327       -1.1159551000178276E-003
 Bq  0.57268152348720880        1.3549949046798979        1.3550077115019876       -4.9712056202226271E-005
 Bq   1.1546934145365064        1.1546995550175312        1.1547123618396209       -9.7049754570368880E-004
 Bq  -1.0336929254386340       0.28170102913469752        1.6888391206505033       -2.5412697038480357E-004
 Bq -0.26404252973412673        1.9648324978451592       0.26404722935175112        8.9798500634423846E-005
 Bq -0.28170913633916289        1.6888263138284136        1.0336976250562584       -1.5689112172315039E-003
 Bq -0.54745307633341833        1.8440721871505452       0.54745777595104261       -6.7165822058559406E-004
 Bq  -1.9648406050496245       0.26403442252966136       0.26404722935175112       -9.1835182534263872E-004
 Bq  -1.6888344210328790        1.0336848182341687       0.28171383595678728       -7.3510610176098269E-004
 Bq  -1.6888344210328790       0.28170102913469752        1.0336976250562584       -9.7978805569012145E-004
 Bq  -1.8440802943550105       0.54744496912895291       0.54745777595104261       -9.4428579077217713E-004
 Bq -0.57269577117269899        1.3549949046798979        1.3550077115019876       -1.1107920444037556E-003
 Bq  -1.3550030118843630        1.3549949046798979       0.57270047079032327       -8.6465654206086256E-004
 Bq  -1.3550030118843630       0.57268766396823367        1.3550077115019876       -1.1425375276948213E-003
 Bq  -1.1547076622219965        1.1546995550175312        1.1547123618396209       -1.5471011811072676E-003
 Bq  -1.0336929254386340      -0.28170299585813813        1.6888391206505033       -8.1251109212060891E-004
 Bq -0.28170913633916289       -1.0336867849576092        1.6888391206505033       -9.0310802765731417E-004
 Bq -0.54745307633341833      -0.54744693585239346        1.8440849939726351        1.6320417386462753E-005
 Bq  -1.9648406050496245      -0.26403638925310197       0.26404722935175112       -7.6210132919945432E-004
 Bq  -1.6888344210328790      -0.28170299585813813        1.0336976250562584       -1.1155378149459113E-003
 Bq  -1.8440802943550105      -0.54744693585239346       0.54745777595104261       -5.4832456413574494E-004
 Bq -0.26404252973412673       -1.9648344645685998       0.26404722935175112        5.9387060986072243E-005
 Bq -0.28170913633916289       -1.6888282805518542        1.0336976250562584       -1.1570599551107093E-003
 Bq -0.54745307633341833       -1.8440741538739858       0.54745777595104261        4.3798822604363446E-006
 Bq  -1.3550030118843630      -0.57268963069167411        1.3550077115019876       -1.4788407394358629E-003
 Bq -0.57269577117269899       -1.3549968714033385        1.3550077115019876       -1.5737001280620570E-003
 Bq  -1.1547076622219965       -1.1547015217409717        1.1547123618396209       -1.2141847467667716E-003
 Bq  0.28169488865367276       -1.0336867849576092        1.6888391206505033       -1.6393870027688390E-004
 Bq  0.26402828204863660       -1.9648344645685998       0.26404722935175112       -8.4821223145826064E-004
 Bq  0.28169488865367276       -1.6888282805518542        1.0336976250562584       -1.1298704982814869E-003
 Bq   1.0336786777531439       -1.6888282805518542       0.28171383595678728       -1.0320573154365804E-003
 Bq  0.54743882864792814       -1.8440741538739858       0.54745777595104261       -9.1950013016122269E-004
 Bq   1.9648263573641347      -0.26403638925310197       0.26404722935175112        2.6798057502768538E-005
 Bq   1.6888201733473889       -1.0336867849576092       0.28171383595678728       -2.9792359356760177E-004
 Bq   1.6888201733473889      -0.28170299585813813        1.0336976250562584       -1.5271435476877074E-003
 Bq   1.8440660466695207      -0.54744693585239346       0.54745777595104261       -1.0321307169021412E-003
 Bq  0.57268152348720880       -1.3549968714033385        1.3550077115019876       -1.1270632937230038E-003
 Bq   1.3549887641988732       -1.3549968714033385       0.57270047079032327       -1.1845167501249002E-003
 Bq   1.3549887641988732      -0.57268963069167411        1.3550077115019876       -9.0272059483991265E-004
 Bq   1.1546934145365064       -1.1547015217409717        1.1547123618396209       -1.2918144320936574E-003
 Bq  0.26402828204863660       0.26403442252966136       -1.9648216577465101       -9.2820993042458247E-004
 Bq   1.0336786777531439       0.28170102913469752       -1.6888154737297643        3.7811100288349180E-005
 Bq  0.28169488865367276        1.0336848182341687       -1.6888154737297643       -1.1643385407171213E-003
 Bq  0.54743882864792814       0.54744496912895291       -1.8440613470518961       -1.3617405373093975E-003
 Bq   1.6888201733473889        1.0336848182341687      -0.28169018903604837       -6.3431661454134165E-004
 Bq  0.26402828204863660        1.9648324978451592      -0.26402358243101226        1.2707615394433897E-004
 Bq   1.0336786777531439        1.6888263138284136      -0.28169018903604837       -1.1813856618569977E-003
 Bq  0.28169488865367276        1.6888263138284136       -1.0336739781355195        6.6979013122054618E-006
 Bq  0.54743882864792814        1.8440721871505452      -0.54743412903030386       -6.4088911152456764E-004
 Bq   1.3549887641988732       0.57268766396823367       -1.3549840645812485        3.4528264380620494E-007
 Bq   1.3549887641988732        1.3549949046798979      -0.57267682386958452       -1.2376199836977130E-003
 Bq  0.57268152348720880        1.3549949046798979       -1.3549840645812485       -1.2836918661839204E-003
 Bq   1.1546934145365064        1.1546995550175312       -1.1546887149188818       -1.5439223962805408E-003
 Bq -0.26404252973412673       0.26403442252966136       -1.9648216577465101       -8.7167294973270609E-004
 Bq -0.28170913633916289        1.0336848182341687       -1.6888154737297643        1.0139073878462089E-004
 Bq  -1.0336929254386340       0.28170102913469752       -1.6888154737297643       -1.1226124135733755E-003
 Bq -0.54745307633341833       0.54744496912895291       -1.8440613470518961       -7.2244170503586692E-004
 Bq  -1.9648406050496245       0.26403442252966136      -0.26402358243101226       -1.1961642523725625E-003
 Bq  -1.6888344210328790        1.0336848182341687      -0.28169018903604837        4.4202535328046155E-005
 Bq  -1.6888344210328790       0.28170102913469752       -1.0336739781355195       -1.4342188203103116E-003
 Bq  -1.8440802943550105       0.54744496912895291      -0.54743412903030386       -8.9890295111236132E-004
 Bq  -1.3550030118843630       0.57268766396823367       -1.3549840645812485       -2.2916430759468371E-004
 Bq -0.26404252973412673      -0.26403638925310197       -1.9648216577465101       -7.3392494698483555E-004
 Bq  -1.0336929254386340      -0.28170299585813813       -1.6888154737297643       -1.2264304697914895E-003
 Bq -0.28170913633916289       -1.0336867849576092       -1.6888154737297643       -1.1962843297393269E-003
 Bq -0.54745307633341833      -0.54744693585239346       -1.8440613470518961       -8.9803995881437306E-004
 Bq  -1.9648406050496245      -0.26403638925310197      -0.26402358243101226       -8.6610469825552038E-004
 Bq  -1.6888344210328790      -0.28170299585813813       -1.0336739781355195       -1.2178676313161869E-003
 Bq  -1.8440802943550105      -0.54744693585239346      -0.54743412903030386        8.9428755725414131E-005
 Bq -0.28170913633916289       -1.6888282805518542       -1.0336739781355195        5.0623887888850943E-005
 Bq  -1.3550030118843630      -0.57268963069167411       -1.3549840645812485       -7.5034695354125880E-004
 Bq -0.57269577117269899       -1.3549968714033385       -1.3549840645812485        9.6372854024510593E-005
 Bq  0.26402828204863660      -0.26403638925310197       -1.9648216577465101       -8.4441856250598764E-004
 Bq  0.28169488865367276       -1.0336867849576092       -1.6888154737297643       -1.2366755562822330E-003
 Bq  0.54743882864792814      -0.54744693585239346       -1.8440613470518961       -7.2502526724297581E-004
 Bq  0.26402828204863660       -1.9648344645685998      -0.26402358243101226       -7.6664676101989744E-004
 Bq  0.28169488865367276       -1.6888282805518542       -1.0336739781355195       -1.4490549820224961E-003
 Bq   1.0336786777531439       -1.6888282805518542      -0.28169018903604837       -1.1531269383433032E-003
 Bq  0.54743882864792814       -1.8440741538739858      -0.54743412903030386       -1.3261070573434824E-003
 Bq  0.57268152348720880       -1.3549968714033385       -1.3549840645812485       -1.3220710208946560E-003
 Bq   1.3549887641988732       -1.3549968714033385      -0.57267682386958452        8.0076538276336797E-006
 Bq  -1.9395493484395270      -0.67811997651094957       -5.2611205579306669E-004   2.6170729570320017E-004
 Bq  -1.7601453354091423      -0.66663668263888076       0.49974662680224125        5.8006376572596368E-005
 Bq  -1.8610551493671779      -0.49390312797844405       0.18369073647671241        2.9954951258090105E-005
 Bq  -1.3343033788926735       -1.0328492854516254       0.92558858331871008        9.0802712200026770E-006
 Bq -0.84551393390670793       -1.5216387304375909       0.92558858331871008        3.6763963456863728E-005
 Bq  -1.0182474885671449       -1.2055828401120621        1.0264983972767456        8.2902747578058819E-008
 Bq  -1.9395493484395270       -1.0213659915795565       -5.2611205579306669E-004   3.7926144128149056E-004
 Bq  -1.7601453354091423       -1.0328492854516254       0.49974662680224125        3.3960436885095642E-004
 Bq  -1.7601453354091423       -1.5216387304375909        1.0957181816275708E-002   7.2183249121847773E-004
 Bq  -1.8610551493671779       -1.2055828401120621       0.18369073647671241        4.8496566309388678E-004
 Bq -0.83403064003463911       -2.1268846999844442       -5.2611205579306669E-004   5.0993814715109744E-004
 Bq  -1.3343033788926735       -1.9474806869540595        1.0957181816275708E-002   7.9240961885333890E-004
 Bq -0.84551393390670793       -1.9474806869540595       0.49974662680224125        4.2677913397165995E-004
 Bq  -1.0182474885671449       -2.0483905009120953       0.18369073647671241        5.9810897670096021E-004
 Bq  -1.5431549274217680       -1.2219905911557616       0.70859817533133584        3.0916875414848603E-004
 Bq  -1.5431549274217680       -1.7304902789666856       0.20009848752041215        7.5020374615491602E-004
 Bq  -1.0346552396108444       -1.7304902789666856       0.70859817533133584        3.8222271859842668E-004
 Bq  -1.4129629549166429       -1.6002983064615603       0.57840620282621080        5.6999033527012030E-004
 Bq -0.49078462496603226       -2.1268846999844442       -5.2611205579306669E-004   3.5815218240540684E-004
 Bq -0.47930133109396350       -1.9474806869540595       0.49974662680224125        2.2701583334632314E-004
 Bq   9.4881138920020446E-003  -1.9474806869540595        1.0957181816275708E-002   3.9926887804535112E-005
 Bq -0.30656777643352678       -2.0483905009120953       0.18369073647671241        2.1653298281408282E-004
 Bq -0.29016002538982705       -1.7304902789666856       0.70859817533133584        6.0529930343748560E-007
 Bq  -1.3343033788926735      -0.66663668263888076       -1.2698868224989031        9.9083149231377703E-005
 Bq  -1.9395493484395270      -0.67811997651094957      -0.34377212712440003        2.5642899545769219E-004
 Bq  -1.7601453354091423      -0.66663668263888076      -0.84404486598243433        2.5083163824705316E-004
 Bq  -1.8610551493671779      -0.49390312797844405      -0.52798897565690550        4.1064385174282977E-005
 Bq  -1.5431549274217680      -0.47749537693474431       -1.0528964145115289        2.1431724432092908E-005
 Bq -0.83403064003463911       -1.0213659915795565       -1.4492908355292877        2.2075525942174108E-005
 Bq  -1.3343033788926735       -1.0328492854516254       -1.2698868224989031        3.6899699665939777E-004
 Bq -0.84551393390670793       -1.5216387304375909       -1.2698868224989031        3.6468313984025746E-004
 Bq  -1.0182474885671449       -1.2055828401120621       -1.3707966364569386        2.8459348091063735E-004
 Bq  -1.9395493484395270       -1.0213659915795565      -0.34377212712440003        3.9688710238171705E-004
 Bq  -1.7601453354091423       -1.0328492854516254      -0.84404486598243433        4.8359973123303113E-004
 Bq  -1.7601453354091423       -1.5216387304375909      -0.35525542099646878        7.8245044757691104E-004
 Bq  -1.8610551493671779       -1.2055828401120621      -0.52798897565690550        5.8600891593287713E-004
 Bq -0.83403064003463911       -2.1268846999844442      -0.34377212712440003        5.5206634096579123E-004
 Bq  -1.3343033788926735       -1.9474806869540595      -0.35525542099646878        8.5297036218200844E-004
 Bq -0.84551393390670793       -1.9474806869540595      -0.84404486598243433        6.2792527509887021E-004
 Bq  -1.0182474885671449       -2.0483905009120953      -0.52798897565690550        7.1197188948868176E-004
 Bq  -1.5431549274217680       -1.2219905911557616       -1.0528964145115289        5.7361715680258405E-004
 Bq  -1.5431549274217680       -1.7304902789666856      -0.54439672670060524        8.8473763428090668E-004
 Bq  -1.0346552396108444       -1.7304902789666856       -1.0528964145115289        6.5171869539457528E-004
 Bq  -1.4129629549166429       -1.6002983064615603      -0.92270444200640378        8.4886352692538824E-004
 Bq -0.47930133109396350       -1.5216387304375909       -1.2698868224989031        8.0476254176704539E-005
 Bq -0.49078462496603226       -2.1268846999844442      -0.34377212712440003        3.9408810971442858E-004
 Bq -0.47930133109396350       -1.9474806869540595      -0.84404486598243433        3.9578670111827359E-004
 Bq   9.4881138920020446E-003  -1.9474806869540595      -0.35525542099646878        1.0186099869482006E-004
 Bq -0.30656777643352678       -2.0483905009120953      -0.52798897565690550        3.1017494994209496E-004
 Bq -0.29016002538982705       -1.7304902789666856       -1.0528964145115289        9.5599210025303766E-005
 Bq -0.27559347019785291        2.1783453906791790      -0.25059124795811616        3.7874477987202761E-004
 Bq  0.22467926866018140        1.9989413776487939      -0.23910795408604740        9.3212353572651220E-005
 Bq -0.26411017632578415        1.9989413776487939       0.24968149089991815        7.3058429106344727E-005
 Bq  -9.1376621665347435E-002   2.0998511916068296       -6.6374399425610686E-002   2.7333969860546790E-004
 Bq -0.61883948526645982        2.1783453906791790      -0.25059124795811616        4.9423999353574201E-004
 Bq -0.63032277913852863        1.9989413776487939       0.24968149089991815        3.4817419983987694E-004
 Bq  -1.1191122241244942        1.9989413776487939      -0.23910795408604740        6.6272612002325944E-004
 Bq -0.80305633379896535        2.0998511916068296       -6.6374399425610686E-002   4.8451007270427550E-004
 Bq  -1.7243581936713477        1.0728266822742909      -0.25059124795811616        1.3678180993040835E-004
 Bq  -1.5449541806409630        1.5730994211323253      -0.23910795408604740        5.0666533602105061E-004
 Bq  -1.5449541806409630        1.0843099761463597       0.24968149089991815        5.6233768204589195E-006
 Bq  -1.6458639945989986        1.2570435308067964       -6.6374399425610686E-002   3.1217251576327204E-004
 Bq -0.81946408484266509        1.7819509696614197       0.45853303942901275        9.7885993189260396E-005
 Bq  -1.3279637726535887        1.7819509696614197       -4.9966648381910957E-002   5.2743366714327422E-004
 Bq  -1.3279637726535887        1.2734512818504962       0.45853303942901275        2.3942212357488927E-006
 Bq  -1.1977718001484636        1.6517589971562947       0.32834106692388765        2.9384848116928593E-004
 Bq  -1.7243581936713477       0.72958066720568393      -0.25059124795811616        2.3256815718225312E-007
 Bq -0.27559347019785291        1.0728266822742909       -1.6993559714316109        6.8351549440633382E-005
 Bq  0.22467926866018140        1.0843099761463597       -1.5199519584012262        3.9827070987507517E-008
 Bq -0.26411017632578415        1.5730994211323253       -1.5199519584012262        4.6993424116997367E-004
 Bq  -9.1376621665347435E-002   1.2570435308067964       -1.6208617723592618        2.2784413940204370E-004
 Bq -0.27559347019785291        2.1783453906791790      -0.59383726302672313        4.9185218642238174E-004
 Bq  0.22467926866018140        1.9989413776487939      -0.60532055689879194        3.5822549281316516E-004
 Bq -0.26411017632578415        1.9989413776487939       -1.0941100018847576        6.4324902326962845E-004
 Bq  -9.1376621665347435E-002   2.0998511916068296      -0.77805411155922866        4.7604932227983252E-004
 Bq  0.43353081718927600        1.7819509696614197      -0.79446186260292839        9.8475489257488955E-005
 Bq  -7.4968870621647699E-002   1.7819509696614197       -1.3029615504138521        4.8999038495529999E-004
 Bq  0.30333884468415090        1.6517589971562947       -1.1727695779087270        2.1955050810623913E-004
 Bq -0.61883948526645982        1.0728266822742909       -1.6993559714316109        2.8404785896574353E-004
 Bq -0.63032277913852863        1.5730994211323253       -1.5199519584012262        6.1983533275831472E-004
 Bq  -1.1191122241244942        1.0843099761463597       -1.5199519584012262        4.5051756960733894E-004
 Bq -0.80305633379896535        1.2570435308067964       -1.6208617723592618        4.6479606511099267E-004
 Bq -0.61883948526645982        2.1783453906791790      -0.59383726302672313        6.0487297964943721E-004
 Bq -0.63032277913852863        1.9989413776487939       -1.0941100018847576        8.0279785662172511E-004
 Bq  -1.1191122241244942        1.9989413776487939      -0.60532055689879194        8.1426516907207459E-004
 Bq -0.80305633379896535        2.0998511916068296      -0.77805411155922866        7.7455928650514651E-004
 Bq  -1.7243581936713477        1.0728266822742909      -0.59383726302672313        2.8328656106968024E-004
 Bq  -1.5449541806409630        1.5730994211323253      -0.60532055689879194        6.4114302622644652E-004
 Bq  -1.5449541806409630        1.0843099761463597       -1.0941100018847576        4.4321772370437272E-004
 Bq  -1.6458639945989986        1.2570435308067964      -0.77805411155922866        4.7241240150089001E-004
 Bq -0.81946408484266509        1.7819509696614197       -1.3029615504138521        8.3063759741830575E-004
 Bq  -1.3279637726535887        1.7819509696614197      -0.79446186260292839        8.4220471105158636E-004
 Bq  -1.3279637726535887        1.2734512818504962       -1.3029615504138521        6.2138049900572004E-004
 Bq  -1.1977718001484636        1.6517589971562947       -1.1727695779087270        9.2093023823255568E-004
 Bq -0.61883948526645982       0.72958066720568393       -1.6993559714316109        5.2044016808244736E-005
 Bq  -1.1191122241244942       0.71809737333361523       -1.5199519584012262        1.7252911297956823E-004
 Bq -0.80305633379896535       0.54536381867317851       -1.6208617723592618        5.0972072790155432E-007
 Bq  -1.7243581936713477       0.72958066720568393      -0.59383726302672313        7.8691111177439890E-005
 Bq  -1.5449541806409630       0.71809737333361523       -1.0941100018847576        1.6184094245202303E-004
 Bq  -1.6458639945989986       0.54536381867317851      -0.77805411155922866        1.8766721915461967E-006
 Bq  -1.3279637726535887       0.52895606762947878       -1.3029615504138521        1.7674336613478082E-005
 Bq  0.31853790771888946       0.30679010672278501        2.3497986206790804        6.9185244786101462E-004
 Bq  0.81881064657692371       0.31827340059485382        2.1703946076486953        7.4717676321201150E-004
 Bq  0.33002120159095821       0.80706284558081942        2.1703946076486953        7.4205409898305550E-004
 Bq  0.50275475625139499       0.49100695525529048        2.2713044216067311        7.5117803570242260E-004
 Bq   1.4240566161237771       0.30679010672278501        1.2442799122741923        4.1691516396928758E-006
 Bq   1.2446526030933924       0.31827340059485382        1.7445526511322269        3.9370911295081987E-004
 Bq   1.2446526030933924       0.80706284558081942        1.2557632061462614        1.6896292140772289E-005
 Bq   1.3455624170514282       0.49100695525529048        1.4284967608066981        1.1835800331345221E-004
 Bq  0.31853790771888946        1.4123088151276728        1.2442799122741923        3.0350443417936974E-006
 Bq  0.81881064657692371        1.2329048020972879        1.2557632061462614        2.1580649983603598E-005
 Bq  0.33002120159095821        1.2329048020972879        1.7445526511322269        3.9437490929558540E-004
 Bq  0.50275475625139499        1.3338146160553237        1.4284967608066981        1.3668394856750080E-004
 Bq   1.0276621951060183       0.50741470629899021        1.9534041996613214        6.1706779946388724E-004
 Bq   1.0276621951060183        1.0159143941099140        1.4449045118503976        2.9842313658721211E-004
 Bq  0.51916250729509472        1.0159143941099140        1.9534041996613214        6.1526251350963390E-004
 Bq  0.89747022260089326       0.88572242160478887        1.8232122271561964        5.8948564682952261E-004
 Bq  -2.4708107349717505E-002  0.30679010672278501        2.3497986206790804        6.5487367131566337E-004
 Bq  -3.6191401221786282E-002  0.80706284558081942        2.1703946076486953        6.8889552989790867E-004
 Bq -0.52498084620775187       0.31827340059485382        2.1703946076486953        5.6880164643958358E-004
 Bq -0.20892495588222298       0.49100695525529048        2.2713044216067311        6.5370340178823175E-004
 Bq  -2.4708107349717505E-002   1.4123088151276728        1.2442799122741923        2.5322112496949015E-008
 Bq  -3.6191401221786282E-002   1.2329048020972879        1.7445526511322269        3.5133747085428445E-004
 Bq -0.20892495588222298        1.3338146160553237        1.4284967608066981        4.3196934022216501E-005
 Bq -0.95082280272422059       0.31827340059485382        1.7445526511322269        2.0357490144227706E-004
 Bq -0.22533270692592272        1.0159143941099140        1.9534041996613214        5.0258517489507808E-004
 Bq -0.73383239473684647        1.0159143941099140        1.4449045118503976        3.4455161714353612E-006
 Bq -0.73383239473684647       0.50741470629899021        1.9534041996613214        4.0320817693717049E-004
 Bq -0.60364042223172132       0.88572242160478887        1.8232122271561964        3.7204611569554202E-004
 Bq  -2.4708107349717505E-002  -3.6455908345821922E-002   2.3497986206790804        6.2019779215974498E-004
 Bq -0.52498084620775187       -4.7939202217890699E-002   2.1703946076486953        5.1467849549636721E-004
 Bq  -3.6191401221786282E-002 -0.53672864720385616        2.1703946076486953        5.1427495973995841E-004
 Bq -0.20892495588222298      -0.22067275687832741        2.2713044216067311        5.5831469934739116E-004
 Bq -0.95082280272422059       -4.7939202217890699E-002   1.7445526511322269        1.2645472460969887E-004
 Bq  -3.6191401221786282E-002 -0.96257060372032499        1.7445526511322269        1.2074293536318936E-004
 Bq -0.73383239473684647      -0.23708050792202714        1.9534041996613214        3.4905072375614974E-004
 Bq -0.22533270692592272      -0.74558019573295087        1.9534041996613214        3.4649912489156769E-004
 Bq -0.60364042223172132      -0.61538822322782571        1.8232122271561964        4.9641504286381792E-005
 Bq  0.31853790771888946       -3.6455908345821922E-002   2.3497986206790804        6.5768445059090125E-004
 Bq  0.33002120159095821      -0.53672864720385616        2.1703946076486953        5.7477545662922534E-004
 Bq  0.81881064657692371       -4.7939202217890699E-002   2.1703946076486953        6.9943547790944985E-004
 Bq  0.50275475625139499      -0.22067275687832741        2.2713044216067311        6.6216020412597628E-004
 Bq  0.33002120159095821      -0.96257060372032499        1.7445526511322269        1.8091221086726268E-004
 Bq   1.4240566161237771       -3.6455908345821922E-002   1.2442799122741923        2.5860652291483634E-007
 Bq   1.2446526030933924       -4.7939202217890699E-002   1.7445526511322269        3.6727392643217066E-004
 Bq   1.3455624170514282      -0.22067275687832741        1.4284967608066981        6.0792606021869050E-005
 Bq  0.51916250729509472      -0.74558019573295087        1.9534041996613214        4.1299991446202124E-004
 Bq   1.0276621951060183      -0.74558019573295087        1.4449045118503976        1.0216625822770132E-005
 Bq   1.0276621951060183      -0.23708050792202714        1.9534041996613214        5.2352666553163757E-004
 Bq  0.89747022260089326      -0.61538822322782571        1.8232122271561964        4.1425734719264796E-004
 Bq   2.2398575498298432       -1.5003798987192179E-002 -0.30668234558343871        4.6364001110229321E-004
 Bq   2.0604535367994581       -3.5205051151234036E-003  0.19359039327459557        1.6334808649731385E-004
 Bq   2.0604535367994581       0.48526893987084213      -0.29519905171136995        3.8064334701810279E-004
 Bq   2.1613633507574939       0.16921304954531330      -0.12246549705093325        3.3843466201353989E-004
 Bq   1.6346115802829893       0.91111089638731080      -0.29519905171136995        1.8670694305386536E-006
 Bq   1.8434631288120837       0.18562080058901304       0.40244194180369020        2.5017252935077766E-007
 Bq   1.8434631288120837       0.69412048839993679      -0.10605774600723351        6.9479700765320368E-005
 Bq   1.6346115802829893       -1.2843645094303022      -0.29519905171136995        3.1017136008668316E-004
 Bq   1.3185556899574606       -1.3852743233883378      -0.12246549705093325        5.9773418240214126E-006
 Bq   2.2398575498298432      -0.35824981405579914      -0.30668234558343871        5.1172550991056406E-004
 Bq   2.0604535367994581      -0.85852255291383339      -0.29519905171136995        5.5847566135924548E-004
 Bq   2.0604535367994581      -0.36973310792786795       0.19359039327459557        2.9640330809835839E-004
 Bq   2.1613633507574939      -0.54246666258830467      -0.12246549705093325        4.5671858948421827E-004
 Bq   1.8434631288120837       -1.0673741014429281      -0.10605774600723351        3.8662977613878344E-004
 Bq   1.8434631288120837      -0.55887441363200441       0.40244194180369020        1.3286867467318856E-004
 Bq   1.7132711563069587      -0.93718212893780284       0.27224996929856504        9.1867945303760094E-005
 Bq   1.1343388414249549       -1.5003798987192179E-002  -1.7554470690569335        2.0389831890589487E-004
 Bq   1.6346115802829893       -3.5205051151234036E-003  -1.5760430560265488        5.9577219144971052E-004
 Bq   1.1458221352970239       0.48526893987084213       -1.5760430560265488        1.8129682401621686E-005
 Bq   1.3185556899574606       0.16921304954531330       -1.6769528699845844        3.0389688981748684E-004
 Bq   2.2398575498298432       -1.5003798987192179E-002 -0.64992836065204573        5.9017957964000139E-004
 Bq   2.0604535367994581       -3.5205051151234036E-003  -1.1502010995100800        7.8748089465812126E-004
 Bq   2.0604535367994581       0.48526893987084213      -0.66141165452411455        5.0707430846445465E-004
 Bq   2.1613633507574939       0.16921304954531330      -0.83414520918455115        6.4507146853720165E-004
 Bq   1.6346115802829893       0.91111089638731080      -0.66141165452411455        9.0248221037294053E-005
 Bq   1.8434631288120837       0.18562080058901304       -1.3590526480391747        6.7754459683315275E-004
 Bq   1.8434631288120837       0.69412048839993679      -0.85055296022825089        4.1758327819202369E-004
 Bq   1.3349634410011602       0.69412048839993679       -1.3590526480391747        9.4191701338454956E-005
 Bq   1.7132711563069587       0.56392851589481163       -1.2288606755340497        4.9396221125255768E-004
 Bq  0.79109282635634814       -1.5003798987192179E-002  -1.7554470690569335        6.1538213636323329E-006
 Bq  0.79109282635634814      -0.35824981405579914       -1.7554470690569335        5.0619299793918332E-005
 Bq  0.77960953248427933      -0.85852255291383339       -1.5760430560265488        3.5455409329361271E-005
 Bq  0.77960953248427933       -1.2843645094303022       -1.1502010995100800        3.4440981084369511E-007
 Bq   1.1343388414249549      -0.35824981405579914       -1.7554470690569335        2.9537216711854228E-004
 Bq   1.1458221352970239      -0.85852255291383339       -1.5760430560265488        3.6431175609390822E-004
 Bq   1.6346115802829893      -0.36973310792786795       -1.5760430560265488        6.6717130296136361E-004
 Bq   1.3185556899574606      -0.54246666258830467       -1.6769528699845844        4.5308206450644716E-004
 Bq   1.1343388414249549       -1.4637685224606869      -0.64992836065204573        1.4902952365544990E-005
 Bq   1.1458221352970239       -1.2843645094303022       -1.1502010995100800        1.8216467444806655E-004
 Bq   1.6346115802829893       -1.2843645094303022      -0.66141165452411455        4.2756522843843698E-004
 Bq   1.3185556899574606       -1.3852743233883378      -0.83414520918455115        2.3260964610263463E-004
 Bq   2.2398575498298432      -0.35824981405579914      -0.64992836065204573        6.3717351698660261E-004
 Bq   2.0604535367994581      -0.85852255291383339      -0.66141165452411455        7.2308287184114572E-004
 Bq   2.0604535367994581      -0.36973310792786795       -1.1502010995100800        8.5325165083740986E-004
 Bq   2.1613633507574939      -0.54246666258830467      -0.83414520918455115        7.6823401103790672E-004
 Bq   1.3349634410011602       -1.0673741014429281       -1.3590526480391747        4.6508514201398213E-004
 Bq   1.8434631288120837       -1.0673741014429281      -0.85055296022825089        6.8896509007058764E-004
 Bq   1.8434631288120837      -0.55887441363200441       -1.3590526480391747        8.2865911112326384E-004
 Bq   1.7132711563069587      -0.93718212893780284       -1.2288606755340497        7.9778546476735933E-004
