                  289
 cosmo charges (= -Bq-charge) (coordinates in Angstrom) format: Bq x y z q
 Bq   1.9648263573639304       0.26403442252963638       0.26404722935253283       -3.9791883381545587E-006
 Bq   1.6888201733471848       0.28170102913467254        1.0336976250570400       -1.4845204811646880E-003
 Bq   1.6888201733471848        1.0336848182341436       0.28171383595756899       -1.0954120810485260E-003
 Bq   1.8440660466693164       0.54744496912892793       0.54745777595182432       -1.3440831100613923E-003
 Bq  0.26402828204843248        1.9648324978451344       0.26404722935253283       -8.3682875556360026E-004
 Bq   1.0336786777529396        1.6888263138283888       0.28171383595756899       -9.8410113943479534E-004
 Bq  0.28169488865346864        1.6888263138283888        1.0336976250570400       -1.3471573612800500E-003
 Bq  0.54743882864772409        1.8440721871505203       0.54745777595182432       -1.1381116349945355E-003
 Bq   1.3549887641986689       0.57268766396820858        1.3550077115027692       -3.4946740477733377E-005
 Bq   1.3549887641986689        1.3549949046798730       0.57270047079110498       -1.1159550999290391E-003
 Bq  0.57268152348700474        1.3549949046798730        1.3550077115027692       -4.9712056172474151E-005
 Bq   1.1546934145363024        1.1546995550175063        1.1547123618404025       -9.7049754563791741E-004
 Bq  -1.0336929254388381       0.28170102913467254        1.6888391206512849       -2.5412697033999696E-004
 Bq -0.26404252973433084        1.9648324978451344       0.26404722935253283        8.9798500631161387E-005
 Bq -0.28170913633936701        1.6888263138283888        1.0336976250570400       -1.5689112172009680E-003
 Bq -0.54745307633362239        1.8440721871505203       0.54745777595182432       -6.7165822060168742E-004
 Bq  -1.9648406050498288       0.26403442252963638       0.26404722935253283       -9.1835182532494595E-004
 Bq  -1.6888344210330830        1.0336848182341436       0.28171383595756899       -7.3510610179065774E-004
 Bq  -1.6888344210330830       0.28170102913467254        1.0336976250570400       -9.7978805563292393E-004
 Bq  -1.8440802943552146       0.54744496912892793       0.54745777595182432       -9.4428579073979840E-004
 Bq -0.57269577117290305        1.3549949046798730        1.3550077115027692       -1.1107920443731985E-003
 Bq  -1.3550030118845673        1.3549949046798730       0.57270047079110498       -8.6465654208580376E-004
 Bq  -1.3550030118845673       0.57268766396820858        1.3550077115027692       -1.1425375276372981E-003
 Bq  -1.1547076622222006        1.1546995550175063        1.1547123618404025       -1.5471011810648718E-003
 Bq  -1.0336929254388381      -0.28170299585816311        1.6888391206512849       -8.1251109206721120E-004
 Bq -0.28170913633936701       -1.0336867849576341        1.6888391206512849       -9.0310802758951445E-004
 Bq -0.54745307633362239      -0.54744693585241855        1.8440849939734167        1.6320417386034412E-005
 Bq  -1.9648406050498288      -0.26403638925312695       0.26404722935253283       -7.6210132918887391E-004
 Bq  -1.6888344210330830      -0.28170299585816311        1.0336976250570400       -1.1155378148951906E-003
 Bq  -1.8440802943552146      -0.54744693585241855       0.54745777595182432       -5.4832456413044320E-004
 Bq -0.26404252973433084       -1.9648344645686247       0.26404722935253283        5.9387060984773220E-005
 Bq -0.28170913633936701       -1.6888282805518791        1.0336976250570400       -1.1570599550230268E-003
 Bq -0.54745307633362239       -1.8440741538740106       0.54745777595182432        4.3798822592794204E-006
 Bq  -1.3550030118845673      -0.57268963069169920        1.3550077115027692       -1.4788407393798205E-003
 Bq -0.57269577117290305       -1.3549968714033633        1.3550077115027692       -1.5737001279910799E-003
 Bq  -1.1547076622222006       -1.1547015217409966        1.1547123618404025       -1.2141847467216451E-003
 Bq  0.28169488865346864       -1.0336867849576341        1.6888391206512849       -1.6393870020793070E-004
 Bq  0.26402828204843248       -1.9648344645686247       0.26404722935253283       -8.4821223137515416E-004
 Bq  0.28169488865346864       -1.6888282805518791        1.0336976250570400       -1.1298704981763203E-003
 Bq   1.0336786777529396       -1.6888282805518791       0.28171383595756899       -1.0320573153380422E-003
 Bq  0.54743882864772409       -1.8440741538740106       0.54745777595182432       -9.1950013006211523E-004
 Bq   1.9648263573639304      -0.26403638925312695       0.26404722935253283        2.6798057507425881E-005
 Bq   1.6888201733471848       -1.0336867849576341       0.28171383595756899       -2.9792359353675459E-004
 Bq   1.6888201733471848      -0.28170299585816311        1.0336976250570400       -1.5271435476270554E-003
 Bq   1.8440660466693164      -0.54744693585241855       0.54745777595182432       -1.0321307168585298E-003
 Bq  0.57268152348700474       -1.3549968714033633        1.3550077115027692       -1.1270632936157797E-003
 Bq   1.3549887641986689       -1.3549968714033633       0.57270047079110498       -1.1845167500259058E-003
 Bq   1.3549887641986689      -0.57268963069169920        1.3550077115027692       -9.0272059476696753E-004
 Bq   1.1546934145363024       -1.1547015217409966        1.1547123618404025       -1.2918144319779105E-003
 Bq  0.26402828204843248       0.26403442252963638       -1.9648216577457285       -9.2820993037126987E-004
 Bq   1.0336786777529396       0.28170102913467254       -1.6888154737289827        3.7811100312654282E-005
 Bq  0.28169488865346864        1.0336848182341436       -1.6888154737289827       -1.1643385406824647E-003
 Bq  0.54743882864772409       0.54744496912892793       -1.8440613470511145       -1.3617405372506005E-003
 Bq   1.6888201733471848        1.0336848182341436      -0.28169018903526671       -6.3431661448947320E-004
 Bq  0.26402828204843248        1.9648324978451344      -0.26402358243023055        1.2707615394100946E-004
 Bq   1.0336786777529396        1.6888263138283888      -0.28169018903526671       -1.1813856617861811E-003
 Bq  0.28169488865346864        1.6888263138283888       -1.0336739781347377        6.6979013086323803E-006
 Bq  0.54743882864772409        1.8440721871505203      -0.54743412902952204       -6.4088911147865753E-004
 Bq   1.3549887641986689       0.57268766396820858       -1.3549840645804669        3.4528264358885718E-007
 Bq   1.3549887641986689        1.3549949046798730      -0.57267682386880270       -1.2376199836295174E-003
 Bq  0.57268152348700474        1.3549949046798730       -1.3549840645804669       -1.2836918661435588E-003
 Bq   1.1546934145363024        1.1546995550175063       -1.1546887149181002       -1.5439223962177384E-003
 Bq -0.26404252973433084       0.26403442252963638       -1.9648216577457285       -8.7167294968647159E-004
 Bq -0.28170913633936701        1.0336848182341436       -1.6888154737289827        1.0139073878043371E-004
 Bq  -1.0336929254388381       0.28170102913467254       -1.6888154737289827       -1.1226124135659769E-003
 Bq -0.54745307633362239       0.54744496912892793       -1.8440613470511145       -7.2244170502557339E-004
 Bq  -1.9648406050498288       0.26403442252963638      -0.26402358243023055       -1.1961642523734780E-003
 Bq  -1.6888344210330830        1.0336848182341436      -0.28169018903526671        4.4202535329989079E-005
 Bq  -1.6888344210330830       0.28170102913467254       -1.0336739781347377       -1.4342188203375697E-003
 Bq  -1.8440802943552146       0.54744496912892793      -0.54743412902952204       -8.9890295116270278E-004
 Bq  -1.3550030118845673       0.57268766396820858       -1.3549840645804669       -2.2916430764654495E-004
 Bq -0.26404252973433084      -0.26403638925312695       -1.9648216577457285       -7.3392494693005417E-004
 Bq  -1.0336929254388381      -0.28170299585816311       -1.6888154737289827       -1.2264304697598397E-003
 Bq -0.28170913633936701       -1.0336867849576341       -1.6888154737289827       -1.1962843296833155E-003
 Bq -0.54745307633362239      -0.54744693585241855       -1.8440613470511145       -8.9803995876836353E-004
 Bq  -1.9648406050498288      -0.26403638925312695      -0.26402358243023055       -8.6610469827320144E-004
 Bq  -1.6888344210330830      -0.28170299585816311       -1.0336739781347377       -1.2178676313356271E-003
 Bq  -1.8440802943552146      -0.54744693585241855      -0.54743412902952204        8.9428755724621023E-005
 Bq -0.28170913633936701       -1.6888282805518791       -1.0336739781347377        5.0623887886523818E-005
 Bq  -1.3550030118845673      -0.57268963069169920       -1.3549840645804669       -7.5034695355074091E-004
 Bq -0.57269577117290305       -1.3549968714033633       -1.3549840645804669        9.6372854030795984E-005
 Bq  0.26402828204843248      -0.26403638925312695       -1.9648216577457285       -8.4441856244583339E-004
 Bq  0.28169488865346864       -1.0336867849576341       -1.6888154737289827       -1.2366755562197129E-003
 Bq  0.54743882864772409      -0.54744693585241855       -1.8440613470511145       -7.2502526718079400E-004
 Bq  0.26402828204843248       -1.9648344645686247      -0.26402358243023055       -7.6664676095345872E-004
 Bq  0.28169488865346864       -1.6888282805518791       -1.0336739781347377       -1.4490549819588048E-003
 Bq   1.0336786777529396       -1.6888282805518791      -0.28169018903526671       -1.1531269382684393E-003
 Bq  0.54743882864772409       -1.8440741538740106      -0.54743412902952204       -1.3261070572782522E-003
 Bq  0.57268152348700474       -1.3549968714033633       -1.3549840645804669       -1.3220710208349984E-003
 Bq   1.3549887641986689       -1.3549968714033633      -0.57267682386880270        8.0076538286717982E-006
 Bq  -1.9395493484388049      -0.67811997651307920       -5.2611205536744882E-004   2.6170729569007569E-004
 Bq  -1.7601453354084200      -0.66663668264101039       0.49974662680266685        5.8006376572666197E-005
 Bq  -1.8610551493664556      -0.49390312798057368       0.18369073647713804        2.9954951257678071E-005
 Bq  -1.3343033788919512       -1.0328492854537548       0.92558858331913563        9.0802712212066513E-006
 Bq -0.84551393390598573       -1.5216387304397205       0.92558858331913563        3.6763963464862321E-005
 Bq  -1.0182474885664223       -1.2055828401141917        1.0264983972771713        8.2902747604922668E-008
 Bq  -1.9395493484388049       -1.0213659915816860       -5.2611205536744882E-004   3.7926144125706554E-004
 Bq  -1.7601453354084200       -1.0328492854537548       0.49974662680266685        3.3960436883447535E-004
 Bq  -1.7601453354084200       -1.5216387304397205        1.0957181816701326E-002   7.2183249118206426E-004
 Bq  -1.8610551493664556       -1.2055828401141917       0.18369073647713804        4.8496566306545797E-004
 Bq -0.83403064003391703       -2.1268846999865740       -5.2611205536744882E-004   5.0993814713263033E-004
 Bq  -1.3343033788919512       -1.9474806869561891        1.0957181816701326E-002   7.9240961881935741E-004
 Bq -0.84551393390598573       -1.9474806869561891       0.49974662680266685        4.2677913396108014E-004
 Bq  -1.0182474885664223       -2.0483905009142247       0.18369073647713804        5.9810897667858314E-004
 Bq  -1.5431549274210459       -1.2219905911578912       0.70859817533176150        3.0916875413775270E-004
 Bq  -1.5431549274210459       -1.7304902789688152       0.20009848752083778        7.5020374612046452E-004
 Bq  -1.0346552396101223       -1.7304902789688152       0.70859817533176150        3.8222271859071616E-004
 Bq  -1.4129629549159208       -1.6002983064636900       0.57840620282663635        5.6999033524333638E-004
 Bq -0.49078462496531000       -2.1268846999865740       -5.2611205536744882E-004   3.5815218239754003E-004
 Bq -0.47930133109324125       -1.9474806869561891       0.49974662680266685        2.2701583336552219E-004
 Bq   9.4881138927243227E-003  -1.9474806869561891        1.0957181816701326E-002   3.9926887811870960E-005
 Bq -0.30656777643280447       -2.0483905009142247       0.18369073647713804        2.1653298283168994E-004
 Bq -0.29016002538910474       -1.7304902789688152       0.70859817533176150        6.0529930374396467E-007
 Bq  -1.3343033788919512      -0.66663668264101039       -1.2698868224984774        9.9083149232712599E-005
 Bq  -1.9395493484388049      -0.67811997651307920      -0.34377212712397442        2.5642899543675462E-004
 Bq  -1.7601453354084200      -0.66663668264101039      -0.84404486598200867        2.5083163822531165E-004
 Bq  -1.8610551493664556      -0.49390312798057368      -0.52798897565647984        4.1064385169508049E-005
 Bq  -1.5431549274210459      -0.47749537693687394       -1.0528964145111033        2.1431724431890722E-005
 Bq -0.83403064003391703       -1.0213659915816860       -1.4492908355288621        2.2075525945563801E-005
 Bq  -1.3343033788919512       -1.0328492854537548       -1.2698868224984774        3.6899699663776230E-004
 Bq -0.84551393390598573       -1.5216387304397205       -1.2698868224984774        3.6468313982207680E-004
 Bq  -1.0182474885664223       -1.2055828401141917       -1.3707966364565132        2.8459348089847033E-004
 Bq  -1.9395493484388049       -1.0213659915816860      -0.34377212712397442        3.9688710235341406E-004
 Bq  -1.7601453354084200       -1.0328492854537548      -0.84404486598200867        4.8359973119889871E-004
 Bq  -1.7601453354084200       -1.5216387304397205      -0.35525542099604313        7.8245044753802743E-004
 Bq  -1.8610551493664556       -1.2055828401141917      -0.52798897565647984        5.8600891589866339E-004
 Bq -0.83403064003391703       -2.1268846999865740      -0.34377212712397442        5.5206634094550982E-004
 Bq  -1.3343033788919512       -1.9474806869561891      -0.35525542099604313        8.5297036214547625E-004
 Bq -0.84551393390598573       -1.9474806869561891      -0.84404486598200867        6.2792527507227734E-004
 Bq  -1.0182474885664223       -2.0483905009142247      -0.52798897565647984        7.1197188945911123E-004
 Bq  -1.5431549274210459       -1.2219905911578912       -1.0528964145111033        5.7361715676728807E-004
 Bq  -1.5431549274210459       -1.7304902789688152      -0.54439672670017958        8.8473763423999475E-004
 Bq  -1.0346552396101223       -1.7304902789688152       -1.0528964145111033        6.5171869536345228E-004
 Bq  -1.4129629549159208       -1.6002983064636900      -0.92270444200597823        8.4886352688275124E-004
 Bq -0.47930133109324125       -1.5216387304397205       -1.2698868224984774        8.0476254182151096E-005
 Bq -0.49078462496531000       -2.1268846999865740      -0.34377212712397442        3.9408810970358233E-004
 Bq -0.47930133109324125       -1.9474806869561891      -0.84404486598200867        3.9578670110577161E-004
 Bq   9.4881138927243227E-003  -1.9474806869561891      -0.35525542099604313        1.0186099870648767E-004
 Bq -0.30656777643280447       -2.0483905009142247      -0.52798897565647984        3.1017494994118325E-004
 Bq -0.29016002538910474       -1.7304902789688152       -1.0528964145111033        9.5599210037077253E-005
 Bq -0.27559347019638158        2.1783453906811987      -0.25059124795926874        3.7874477983769326E-004
 Bq  0.22467926866165272        1.9989413776508140      -0.23910795408719998        9.3212353573372676E-005
 Bq -0.26411017632431283        1.9989413776508140       0.24968149089876557        7.3058429099782837E-005
 Bq  -9.1376621663876084E-002   2.0998511916088494       -6.6374399426763250E-002   2.7333969858226543E-004
 Bq -0.61883948526498855        2.1783453906811987      -0.25059124795926874        4.9423999349421739E-004
 Bq -0.63032277913705737        1.9989413776508140       0.24968149089876557        3.4817419980244871E-004
 Bq  -1.1191122241230227        1.9989413776508140      -0.23910795408719998        6.6272611996360381E-004
 Bq -0.80305633379749397        2.0998511916088494       -6.6374399426763250E-002   4.8451007265591623E-004
 Bq  -1.7243581936698764        1.0728266822763111      -0.25059124795926874        1.3678180989994533E-004
 Bq  -1.5449541806394917        1.5730994211343452      -0.23910795408719998        5.0666533596269018E-004
 Bq  -1.5449541806394917        1.0843099761483797       0.24968149089876557        5.6233768201683491E-006
 Bq  -1.6458639945975273        1.2570435308088164       -6.6374399426763250E-002   3.1217251572329663E-004
 Bq -0.81946408484119371        1.7819509696634399       0.45853303942786017        9.7885993178725461E-005
 Bq  -1.3279637726521174        1.7819509696634399       -4.9966648383063521E-002   5.2743366708416601E-004
 Bq  -1.3279637726521174        1.2734512818525163       0.45853303942786017        2.3942212356678740E-006
 Bq  -1.1977718001469924        1.6517589971583149       0.32834106692273507        2.9384848112810880E-004
 Bq  -1.7243581936698764       0.72958066720770398      -0.25059124795926874        2.3256815713944982E-007
 Bq -0.27559347019638158        1.0728266822763111       -1.6993559714327635        6.8351549437040132E-005
 Bq  0.22467926866165272        1.0843099761483797       -1.5199519584023788        3.9827071051627409E-008
 Bq -0.26411017632431283        1.5730994211343452       -1.5199519584023788        4.6993424112788971E-004
 Bq  -9.1376621663876084E-002   1.2570435308088164       -1.6208617723604144        2.2784413939145522E-004
 Bq -0.27559347019638158        2.1783453906811987      -0.59383726302787565        4.9185218638386980E-004
 Bq  0.22467926866165272        1.9989413776508140      -0.60532055689994446        3.5822549278588934E-004
 Bq -0.26411017632431283        1.9989413776508140       -1.0941100018859100        6.4324902322026375E-004
 Bq  -9.1376621663876084E-002   2.0998511916088494      -0.77805411156038118        4.7604932224090576E-004
 Bq  0.43353081719074738        1.7819509696634399      -0.79446186260408092        9.8475489259386865E-005
 Bq  -7.4968870620176362E-002   1.7819509696634399       -1.3029615504150045        4.8999038491308908E-004
 Bq  0.30333884468562222        1.6517589971583149       -1.1727695779098795        2.1955050809861236E-004
 Bq -0.61883948526498855        1.0728266822763111       -1.6993559714327635        2.8404785893647631E-004
 Bq -0.63032277913705737        1.5730994211343452       -1.5199519584023788        6.1983533270685263E-004
 Bq  -1.1191122241230227        1.0843099761483797       -1.5199519584023788        4.5051756955667558E-004
 Bq -0.80305633379749397        1.2570435308088164       -1.6208617723604144        4.6479606506646829E-004
 Bq -0.61883948526498855        2.1783453906811987      -0.59383726302787565        6.0487297960412916E-004
 Bq -0.63032277913705737        1.9989413776508140       -1.0941100018859100        8.0279785656338083E-004
 Bq  -1.1191122241230227        1.9989413776508140      -0.60532055689994446        8.1426516900829878E-004
 Bq -0.80305633379749397        2.0998511916088494      -0.77805411156038118        7.7455928644836380E-004
 Bq  -1.7243581936698764        1.0728266822763111      -0.59383726302787565        2.8328656102163605E-004
 Bq  -1.5449541806394917        1.5730994211343452      -0.60532055689994446        6.4114302616430547E-004
 Bq  -1.5449541806394917        1.0843099761483797       -1.0941100018859100        4.4321772364648007E-004
 Bq  -1.6458639945975273        1.2570435308088164      -0.77805411156038118        4.7241240144669459E-004
 Bq -0.81946408484119371        1.7819509696634399       -1.3029615504150045        8.3063759735426779E-004
 Bq  -1.3279637726521174        1.7819509696634399      -0.79446186260408092        8.4220471098232872E-004
 Bq  -1.3279637726521174        1.2734512818525163       -1.3029615504150045        6.2138049894495137E-004
 Bq  -1.1977718001469924        1.6517589971583149       -1.1727695779098795        9.2093023815816228E-004
 Bq -0.61883948526498855       0.72958066720770398       -1.6993559714327635        5.2044016810743544E-005
 Bq  -1.1191122241230227       0.71809737333563528       -1.5199519584023788        1.7252911296773715E-004
 Bq -0.80305633379749397       0.54536381867519856       -1.6208617723604144        5.0972072806247893E-007
 Bq  -1.7243581936698764       0.72958066720770398      -0.59383726302787565        7.8691111171973885E-005
 Bq  -1.5449541806394917       0.71809737333563528       -1.0941100018859100        1.6184094242933128E-004
 Bq  -1.6458639945975273       0.54536381867519856      -0.77805411156038118        1.8766721913892343E-006
 Bq  -1.3279637726521174       0.52895606763149883       -1.3029615504150045        1.7674336615280270E-005
 Bq  0.31853790771832619       0.30679010672245943        2.3497986206801200        6.9185244783904760E-004
 Bq  0.81881064657636049       0.31827340059452819        2.1703946076497349        7.4717676318914903E-004
 Bq  0.33002120159039500       0.80706284558049379        2.1703946076497349        7.4205409895798495E-004
 Bq  0.50275475625083166       0.49100695525496491        2.2713044216077707        7.5117803567753690E-004
 Bq   1.4240566161232138       0.30679010672245943        1.2442799122752319        4.1691516405401510E-006
 Bq   1.2446526030928291       0.31827340059452819        1.7445526511332665        3.9370911294337157E-004
 Bq   1.2446526030928291       0.80706284558049379        1.2557632061473010        1.6896292143687553E-005
 Bq   1.3455624170508649       0.49100695525496491        1.4284967608077377        1.1835800331469690E-004
 Bq  0.31853790771832619        1.4123088151273473        1.2442799122752319        3.0350443422471111E-006
 Bq  0.81881064657636049        1.2329048020969626        1.2557632061473010        2.1580649986044822E-005
 Bq  0.33002120159039500        1.2329048020969626        1.7445526511332665        3.9437490928504268E-004
 Bq  0.50275475625083166        1.3338146160549982        1.4284967608077377        1.3668394856446831E-004
 Bq   1.0276621951054552       0.50741470629866459        1.9534041996623612        6.1706779944428270E-004
 Bq   1.0276621951054552        1.0159143941095883        1.4449045118514372        2.9842313658949506E-004
 Bq  0.51916250729453139        1.0159143941095883        1.9534041996623612        6.1526251348882589E-004
 Bq  0.89747022260033005       0.88572242160446324        1.8232122271572360        5.8948564681119331E-004
 Bq  -2.4708107350280777E-002  0.30679010672245943        2.3497986206801200        6.5487367129497245E-004
 Bq  -3.6191401222349553E-002  0.80706284558049379        2.1703946076497349        6.8889552987478242E-004
 Bq -0.52498084620831509       0.31827340059452819        2.1703946076497349        5.6880164642216999E-004
 Bq -0.20892495588278626       0.49100695525496491        2.2713044216077707        6.5370340176676856E-004
 Bq  -2.4708107350280777E-002   1.4123088151273473        1.2442799122752319        2.5322112503272053E-008
 Bq  -3.6191401222349553E-002   1.2329048020969626        1.7445526511332665        3.5133747084617440E-004
 Bq -0.20892495588278626        1.3338146160549982        1.4284967608077377        4.3196934025884594E-005
 Bq -0.95082280272478392       0.31827340059452819        1.7445526511332665        2.0357490143772461E-004
 Bq -0.22533270692648599        1.0159143941095883        1.9534041996623612        5.0258517487822112E-004
 Bq -0.73383239473740969        1.0159143941095883        1.4449045118514372        3.4455161721137617E-006
 Bq -0.73383239473740969       0.50741470629866459        1.9534041996623612        4.0320817692839983E-004
 Bq -0.60364042223228453       0.88572242160446324        1.8232122271572360        3.7204611569075023E-004
 Bq  -2.4708107350280777E-002  -3.6455908346147516E-002   2.3497986206801200        6.2019779214113205E-004
 Bq -0.52498084620831509       -4.7939202218216292E-002   2.1703946076497349        5.1467849548162868E-004
 Bq  -3.6191401222349553E-002 -0.53672864720418179        2.1703946076497349        5.1427495972752207E-004
 Bq -0.20892495588278626      -0.22067275687865301        2.2713044216077707        5.5831469933207583E-004
 Bq -0.95082280272478392       -4.7939202218216292E-002   1.7445526511332665        1.2645472461354936E-004
 Bq  -3.6191401222349553E-002 -0.96257060372065062        1.7445526511332665        1.2074293536917517E-004
 Bq -0.73383239473740969      -0.23708050792235275        1.9534041996623612        3.4905072375462302E-004
 Bq -0.22533270692648599      -0.74558019573327639        1.9534041996623612        3.4649912489210063E-004
 Bq -0.60364042223228453      -0.61538822322815134        1.8232122271572360        4.9641504299026835E-005
 Bq  0.31853790771832619       -3.6455908346147516E-002   2.3497986206801200        6.5768445057080317E-004
 Bq  0.33002120159039500      -0.53672864720418179        2.1703946076497349        5.7477545661482486E-004
 Bq  0.81881064657636049       -4.7939202218216292E-002   2.1703946076497349        6.9943547788883309E-004
 Bq  0.50275475625083166      -0.22067275687865301        2.2713044216077707        6.6216020410735652E-004
 Bq  0.33002120159039500      -0.96257060372065062        1.7445526511332665        1.8091221085795892E-004
 Bq   1.4240566161232138       -3.6455908346147516E-002   1.2442799122752319        2.5860652299898536E-007
 Bq   1.2446526030928291       -4.7939202218216292E-002   1.7445526511332665        3.6727392642959129E-004
 Bq   1.3455624170508649      -0.22067275687865301        1.4284967608077377        6.0792606028530205E-005
 Bq  0.51916250729453139      -0.74558019573327639        1.9534041996623612        4.1299991446253439E-004
 Bq   1.0276621951054552      -0.74558019573327639        1.4449045118514372        1.0216625825087128E-005
 Bq   1.0276621951054552      -0.23708050792235275        1.9534041996623612        5.2352666552021268E-004
 Bq  0.89747022260033005      -0.61538822322815134        1.8232122271572360        4.1425734720040375E-004
 Bq   2.2398575498284159       -1.5003798986732163E-002 -0.30668234558453322        4.6364001108051912E-004
 Bq   2.0604535367980312       -3.5205051146633875E-003  0.19359039327350111        1.6334808649310460E-004
 Bq   2.0604535367980312       0.48526893987130215      -0.29519905171246447        3.8064334700627772E-004
 Bq   2.1613633507560670       0.16921304954577332      -0.12246549705202771        3.3843466199900908E-004
 Bq   1.6346115802815626       0.91111089638777099      -0.29519905171246447        1.8670694304544096E-006
 Bq   1.8434631288106571       0.18562080058947306       0.40244194180259574        2.5017252943977123E-007
 Bq   1.8434631288106571       0.69412048840039675      -0.10605774600832797        6.9479700768563854E-005
 Bq   1.6346115802815626       -1.2843645094298421      -0.29519905171246447        3.1017136008713750E-004
 Bq   1.3185556899560336       -1.3852743233878777      -0.12246549705202771        5.9773418248702946E-006
 Bq   2.2398575498284159      -0.35824981405533912      -0.30668234558453322        5.1172550988736528E-004
 Bq   2.0604535367980312      -0.85852255291337343      -0.29519905171246447        5.5847566133440435E-004
 Bq   2.0604535367980312      -0.36973310792740793       0.19359039327350111        2.9640330808485422E-004
 Bq   2.1613633507560670      -0.54246666258784459      -0.12246549705202771        4.5671858946300575E-004
 Bq   1.8434631288106571       -1.0673741014424680      -0.10605774600832797        3.8662977612794966E-004
 Bq   1.8434631288106571      -0.55887441363154433       0.40244194180259574        1.3286867466668557E-004
 Bq   1.7132711563055321      -0.93718212893734298       0.27224996929747058        9.1867945302044317E-005
 Bq   1.1343388414235283       -1.5003798986732163E-002  -1.7554470690580279        2.0389831890978366E-004
 Bq   1.6346115802815626       -3.5205051146633875E-003  -1.5760430560276431        5.9577219142713440E-004
 Bq   1.1458221352955971       0.48526893987130215       -1.5760430560276431        1.8129682409782801E-005
 Bq   1.3185556899560336       0.16921304954577332       -1.6769528699856788        3.0389688980744274E-004
 Bq   2.2398575498284159       -1.5003798986732163E-002 -0.64992836065314019        5.9017957961580102E-004
 Bq   2.0604535367980312       -3.5205051146633875E-003  -1.1502010995111744        7.8748089462642537E-004
 Bq   2.0604535367980312       0.48526893987130215      -0.66141165452520889        5.0707430844348673E-004
 Bq   2.1613633507560670       0.16921304954577332      -0.83414520918564561        6.4507146851011730E-004
 Bq   1.6346115802815626       0.91111089638777099      -0.66141165452520889        9.0248221042794508E-005
 Bq   1.8434631288106571       0.18562080058947306       -1.3590526480402692        6.7754459680597766E-004
 Bq   1.8434631288106571       0.69412048840039675      -0.85055296022934546        4.1758327818034038E-004
 Bq   1.3349634409997335       0.69412048840039675       -1.3590526480402692        9.4191701347118341E-005
 Bq   1.7132711563055321       0.56392851589527160       -1.2288606755351439        4.9396221123514106E-004
 Bq  0.79109282635492117       -1.5003798986732163E-002  -1.7554470690580279        6.1538213659894130E-006
 Bq  0.79109282635492117      -0.35824981405533912       -1.7554470690580279        5.0619299800441496E-005
 Bq  0.77960953248285247      -0.85852255291337343       -1.5760430560276431        3.5455409335213530E-005
 Bq  0.77960953248285247       -1.2843645094298421       -1.1502010995111744        3.4440981096443542E-007
 Bq   1.1343388414235283      -0.35824981405533912       -1.7554470690580279        2.9537216711916705E-004
 Bq   1.1458221352955971      -0.85852255291337343       -1.5760430560276431        3.6431175609070770E-004
 Bq   1.6346115802815626      -0.36973310792740793       -1.5760430560276431        6.6717130293698045E-004
 Bq   1.3185556899560336      -0.54246666258784459       -1.6769528699856788        4.5308206449166992E-004
 Bq   1.1343388414235283       -1.4637685224602268      -0.64992836065314019        1.4902952370950339E-005
 Bq   1.1458221352955971       -1.2843645094298421       -1.1502010995111744        1.8216467445402403E-004
 Bq   1.6346115802815626       -1.2843645094298421      -0.66141165452520889        4.2756522842265382E-004
 Bq   1.3185556899560336       -1.3852743233878777      -0.83414520918564561        2.3260964610265816E-004
 Bq   2.2398575498284159      -0.35824981405533912      -0.64992836065314019        6.3717351695961367E-004
 Bq   2.0604535367980312      -0.85852255291337343      -0.66141165452520889        7.2308287181003768E-004
 Bq   2.0604535367980312      -0.36973310792740793       -1.1502010995111744        8.5325165080339085E-004
 Bq   2.1613633507560670      -0.54246666258784459      -0.83414520918564561        7.6823401100717089E-004
 Bq   1.3349634409997335       -1.0673741014424680       -1.3590526480402692        4.6508514199826027E-004
 Bq   1.8434631288106571       -1.0673741014424680      -0.85055296022934546        6.8896509004210391E-004
 Bq   1.8434631288106571      -0.55887441363154433       -1.3590526480402692        8.2865911109050749E-004
 Bq   1.7132711563055321      -0.93718212893734298       -1.2288606755351439        7.9778546473510269E-004
