                  289
 cosmo charges (= -Bq-charge) (coordinates in Angstrom) format: Bq x y z q
 Bq   1.9648263573651821       0.26403442252928871       0.26404722934931624       -3.9791890316858626E-006
 Bq   1.6888201733484363       0.28170102913432482        1.0336976250538235       -1.4845204799722440E-003
 Bq   1.6888201733484363        1.0336848182337961       0.28171383595435240       -1.0954120807139191E-003
 Bq   1.8440660466705681       0.54744496912858021       0.54745777594860778       -1.3440831106618946E-003
 Bq  0.26402828204968404        1.9648324978447866       0.26404722934931624       -8.3682875552460844E-004
 Bq   1.0336786777541913        1.6888263138280408       0.28171383595435240       -9.8410114001986270E-004
 Bq  0.28169488865472020        1.6888263138280408        1.0336976250538237       -1.3471573615725834E-003
 Bq  0.54743882864897553        1.8440721871501726       0.54745777594860778       -1.1381116351915474E-003
 Bq   1.3549887641999205       0.57268766396786086        1.3550077114995529       -3.4946742333893188E-005
 Bq   1.3549887641999205        1.3549949046795251       0.57270047078788844       -1.1159550995647283E-003
 Bq  0.57268152348825618        1.3549949046795251        1.3550077114995529       -4.9712055703395626E-005
 Bq   1.1546934145375538        1.1546995550171584        1.1547123618371862       -9.7049754786121057E-004
 Bq  -1.0336929254375868       0.28170102913432482        1.6888391206480686       -2.5412697288343795E-004
 Bq -0.26404252973307929        1.9648324978447866       0.26404722934931624        8.9798500429254631E-005
 Bq -0.28170913633811545        1.6888263138280408        1.0336976250538235       -1.5689112178109373E-003
 Bq -0.54745307633237084        1.8440721871501726       0.54745777594860778       -6.7165821990342750E-004
 Bq  -1.9648406050485772       0.26403442252928871       0.26404722934931624       -9.1835182465161477E-004
 Bq  -1.6888344210318313        1.0336848182337959       0.28171383595435240       -7.3510610166828395E-004
 Bq  -1.6888344210318313       0.28170102913432482        1.0336976250538237       -9.7978805574112210E-004
 Bq  -1.8440802943539631       0.54744496912858021       0.54745777594860778       -9.4428579136517153E-004
 Bq -0.57269577117165160        1.3549949046795251        1.3550077114995529       -1.1107920457450720E-003
 Bq  -1.3550030118833156        1.3549949046795251       0.57270047078788844       -8.6465654161453664E-004
 Bq  -1.3550030118833156       0.57268766396786086        1.3550077114995529       -1.1425375273408957E-003
 Bq  -1.1547076622209489        1.1546995550171584        1.1547123618371862       -1.5471011813801565E-003
 Bq  -1.0336929254375866      -0.28170299585851083        1.6888391206480686       -8.1251109227163838E-004
 Bq -0.28170913633811545       -1.0336867849579821        1.6888391206480686       -9.0310802837619756E-004
 Bq -0.54745307633237084      -0.54744693585276616        1.8440849939702002        1.6320417360433343E-005
 Bq  -1.9648406050485772      -0.26403638925347467       0.26404722934931624       -7.6210132912126111E-004
 Bq  -1.6888344210318313      -0.28170299585851083        1.0336976250538235       -1.1155378147207162E-003
 Bq  -1.8440802943539631      -0.54744693585276616       0.54745777594860778       -5.4832456366005514E-004
 Bq -0.26404252973307929       -1.9648344645689726       0.26404722934931624        5.9387061071854312E-005
 Bq -0.28170913633811545       -1.6888282805522268        1.0336976250538237       -1.1570599555536672E-003
 Bq -0.54745307633237084       -1.8440741538743586       0.54745777594860778        4.3798822596640157E-006
 Bq  -1.3550030118833156      -0.57268963069204692        1.3550077114995529       -1.4788407391180354E-003
 Bq -0.57269577117165160       -1.3549968714037111        1.3550077114995529       -1.5737001277243323E-003
 Bq  -1.1547076622209489       -1.1547015217413443        1.1547123618371862       -1.2141847468612535E-003
 Bq  0.28169488865472020       -1.0336867849579818        1.6888391206480686       -1.6393869763529028E-004
 Bq  0.26402828204968404       -1.9648344645689726       0.26404722934931624       -8.4821223219363768E-004
 Bq  0.28169488865472020       -1.6888282805522268        1.0336976250538235       -1.1298704984085133E-003
 Bq   1.0336786777541915       -1.6888282805522268       0.28171383595435240       -1.0320573151109019E-003
 Bq  0.54743882864897553       -1.8440741538743586       0.54745777594860778       -9.1950012958981226E-004
 Bq   1.9648263573651821      -0.26403638925347467       0.26404722934931624        2.6798057221510990E-005
 Bq   1.6888201733484363       -1.0336867849579818       0.28171383595435240       -2.9792359559347890E-004
 Bq   1.6888201733484363      -0.28170299585851083        1.0336976250538237       -1.5271435487311156E-003
 Bq   1.8440660466705681      -0.54744693585276616       0.54745777594860778       -1.0321307143088168E-003
 Bq  0.57268152348825618       -1.3549968714037111        1.3550077114995529       -1.1270632939909405E-003
 Bq   1.3549887641999205       -1.3549968714037111       0.57270047078788844       -1.1845167502457306E-003
 Bq   1.3549887641999205      -0.57268963069204692        1.3550077114995529       -9.0272059476300878E-004
 Bq   1.1546934145375538       -1.1547015217413443        1.1547123618371862       -1.2918144316122078E-003
 Bq  0.26402828204968404       0.26403442252928871       -1.9648216577489450       -9.2820992982008902E-004
 Bq   1.0336786777541913       0.28170102913432482       -1.6888154737321992        3.7811100447996486E-005
 Bq  0.28169488865472020        1.0336848182337961       -1.6888154737321992       -1.1643385403867265E-003
 Bq  0.54743882864897553       0.54744496912858021       -1.8440613470543308       -1.3617405375639967E-003
 Bq   1.6888201733484363        1.0336848182337961      -0.28169018903848325       -6.3431661572905401E-004
 Bq  0.26402828204968404        1.9648324978447866      -0.26402358243344709        1.2707615359768351E-004
 Bq   1.0336786777541913        1.6888263138280408      -0.28169018903848325       -1.1813856627543057E-003
 Bq  0.28169488865472020        1.6888263138280408       -1.0336739781379547        6.6979012770539714E-006
 Bq  0.54743882864897553        1.8440721871501726      -0.54743412903273869       -6.4088911158482424E-004
 Bq   1.3549887641999205       0.57268766396786086       -1.3549840645836835        3.4528264163760938E-007
 Bq   1.3549887641999205        1.3549949046795251      -0.57267682387201935       -1.2376199832879560E-003
 Bq  0.57268152348825618        1.3549949046795251       -1.3549840645836835       -1.2836918654898812E-003
 Bq   1.1546934145375538        1.1546995550171584       -1.1546887149213168       -1.5439223963779555E-003
 Bq -0.26404252973307929       0.26403442252928871       -1.9648216577489450       -8.7167294921200119E-004
 Bq -0.28170913633811545        1.0336848182337959       -1.6888154737321992        1.0139073857496040E-004
 Bq  -1.0336929254375868       0.28170102913432482       -1.6888154737321992       -1.1226124133761172E-003
 Bq -0.54745307633237084       0.54744496912858021       -1.8440613470543308       -7.2244170482008217E-004
 Bq  -1.9648406050485772       0.26403442252928871      -0.26402358243344709       -1.1961642530184556E-003
 Bq  -1.6888344210318313        1.0336848182337959      -0.28169018903848325        4.4202535600489390E-005
 Bq  -1.6888344210318313       0.28170102913432482       -1.0336739781379547       -1.4342188195708113E-003
 Bq  -1.8440802943539631       0.54744496912858021      -0.54743412903273869       -8.9890295080736322E-004
 Bq  -1.3550030118833156       0.57268766396786086       -1.3549840645836835       -2.2916430738264285E-004
 Bq -0.26404252973307929      -0.26403638925347467       -1.9648216577489450       -7.3392494701662154E-004
 Bq  -1.0336929254375866      -0.28170299585851083       -1.6888154737321992       -1.2264304707284345E-003
 Bq -0.28170913633811545       -1.0336867849579821       -1.6888154737321992       -1.1962843297131155E-003
 Bq -0.54745307633237084      -0.54744693585276616       -1.8440613470543308       -8.9803995923475293E-004
 Bq  -1.9648406050485772      -0.26403638925347467      -0.26402358243344709       -8.6610469766649296E-004
 Bq  -1.6888344210318313      -0.28170299585851083       -1.0336739781379545       -1.2178676319117945E-003
 Bq  -1.8440802943539631      -0.54744693585276616      -0.54743412903273869        8.9428755927542592E-005
 Bq -0.28170913633811545       -1.6888282805522268       -1.0336739781379547        5.0623887745799994E-005
 Bq  -1.3550030118833156      -0.57268963069204692       -1.3549840645836835       -7.5034695278294774E-004
 Bq -0.57269577117165160       -1.3549968714037111       -1.3549840645836835        9.6372853986316414E-005
 Bq  0.26402828204968404      -0.26403638925347467       -1.9648216577489450       -8.4441856271285569E-004
 Bq  0.28169488865472020       -1.0336867849579818       -1.6888154737321992       -1.2366755558306970E-003
 Bq  0.54743882864897553      -0.54744693585276616       -1.8440613470543308       -7.2502526776756010E-004
 Bq  0.26402828204968404       -1.9648344645689726      -0.26402358243344709       -7.6664676021883434E-004
 Bq  0.28169488865472020       -1.6888282805522268       -1.0336739781379545       -1.4490549817630009E-003
 Bq   1.0336786777541915       -1.6888282805522268      -0.28169018903848325       -1.1531269390610875E-003
 Bq  0.54743882864897553       -1.8440741538743586      -0.54743412903273869       -1.3261070563571470E-003
 Bq  0.57268152348825618       -1.3549968714037111       -1.3549840645836835       -1.3220710218831509E-003
 Bq   1.3549887641999205       -1.3549968714037111      -0.57267682387201935        8.0076537943050829E-006
 Bq  -1.9395493484443518      -0.67811997650951139       -5.2611205898953322E-004   2.6170729562824462E-004
 Bq  -1.7601453354139671      -0.66663668263744269       0.49974662679904502        5.8006376492510507E-005
 Bq  -1.8610551493720027      -0.49390312797700597       0.18369073647351594        2.9954951362071893E-005
 Bq  -1.3343033788974985       -1.0328492854501872       0.92558858331551352        9.0802712448368749E-006
 Bq -0.84551393391153273       -1.5216387304361529       0.92558858331551352        3.6763963692249265E-005
 Bq  -1.0182474885719697       -1.2055828401106239        1.0264983972735491        8.2902747612450501E-008
 Bq  -1.9395493484443518       -1.0213659915781186       -5.2611205898953322E-004   3.7926144109809982E-004
 Bq  -1.7601453354139671       -1.0328492854501872       0.49974662679904480        3.3960436936984929E-004
 Bq  -1.7601453354139671       -1.5216387304361529        1.0957181813079243E-002   7.2183249111855625E-004
 Bq  -1.8610551493720027       -1.2055828401106239       0.18369073647351594        4.8496566335876648E-004
 Bq -0.83403064003946403       -2.1268846999830062       -5.2611205898953322E-004   5.0993814683179893E-004
 Bq  -1.3343033788974985       -1.9474806869526216        1.0957181813079243E-002   7.9240961892484887E-004
 Bq -0.84551393391153273       -1.9474806869526216       0.49974662679904502        4.2677913401103021E-004
 Bq  -1.0182474885719697       -2.0483905009106573       0.18369073647351594        5.9810897634782016E-004
 Bq  -1.5431549274265930       -1.2219905911543236       0.70859817532813940        3.0916875422573836E-004
 Bq  -1.5431549274265930       -1.7304902789652474       0.20009848751721568        7.5020374637845900E-004
 Bq  -1.0346552396156692       -1.7304902789652474       0.70859817532813940        3.8222271917261755E-004
 Bq  -1.4129629549214680       -1.6002983064601222       0.57840620282301425        5.6999033545907494E-004
 Bq -0.49078462497085706       -2.1268846999830062       -5.2611205898953322E-004   3.5815218227656286E-004
 Bq -0.47930133109878836       -1.9474806869526216       0.49974662679904480        2.2701583332189915E-004
 Bq   9.4881138871774559E-003  -1.9474806869526216        1.0957181813079243E-002   3.9926887596630740E-005
 Bq -0.30656777643835159       -2.0483905009106573       0.18369073647351594        2.1653298273407114E-004
 Bq -0.29016002539465185       -1.7304902789652474       0.70859817532813940        6.0529930054656564E-007
 Bq  -1.3343033788974985      -0.66663668263744269       -1.2698868225020996        9.9083148904718444E-005
 Bq  -1.9395493484443518      -0.67811997650951139      -0.34377212712759647        2.5642899490445033E-004
 Bq  -1.7601453354139671      -0.66663668263744269      -0.84404486598563100        2.5083163826249090E-004
 Bq  -1.8610551493720027      -0.49390312797700597      -0.52798897566010194        4.1064385567702825E-005
 Bq  -1.5431549274265930      -0.47749537693330624       -1.0528964145147255        2.1431724545918751E-005
 Bq -0.83403064003946403       -1.0213659915781186       -1.4492908355324843        2.2075525825155903E-005
 Bq  -1.3343033788974985       -1.0328492854501872       -1.2698868225020996        3.6899699619095467E-004
 Bq -0.84551393391153273       -1.5216387304361529       -1.2698868225020996        3.6468313985088991E-004
 Bq  -1.0182474885719697       -1.2055828401106239       -1.3707966364601352        2.8459348095935820E-004
 Bq  -1.9395493484443518       -1.0213659915781186      -0.34377212712759647        3.9688710224615724E-004
 Bq  -1.7601453354139671       -1.0328492854501872      -0.84404486598563078        4.8359973099682441E-004
 Bq  -1.7601453354139671       -1.5216387304361529      -0.35525542099966523        7.8245044713540917E-004
 Bq  -1.8610551493720027       -1.2055828401106239      -0.52798897566010194        5.8600891611164244E-004
 Bq -0.83403064003946403       -2.1268846999830062      -0.34377212712759647        5.5206634070393732E-004
 Bq  -1.3343033788974985       -1.9474806869526216      -0.35525542099966523        8.5297036248593199E-004
 Bq -0.84551393391153273       -1.9474806869526216      -0.84404486598563100        6.2792527517233445E-004
 Bq  -1.0182474885719697       -2.0483905009106573      -0.52798897566010194        7.1197188940580285E-004
 Bq  -1.5431549274265930       -1.2219905911543236       -1.0528964145147255        5.7361715751011347E-004
 Bq  -1.5431549274265930       -1.7304902789652474      -0.54439672670380168        8.8473763434886307E-004
 Bq  -1.0346552396156692       -1.7304902789652474       -1.0528964145147255        6.5171869577860652E-004
 Bq  -1.4129629549214680       -1.6002983064601222      -0.92270444200960033        8.4886352726236066E-004
 Bq -0.47930133109878836       -1.5216387304361527       -1.2698868225020996        8.0476254024950238E-005
 Bq -0.49078462497085706       -2.1268846999830062      -0.34377212712759647        3.9408810915863483E-004
 Bq -0.47930133109878836       -1.9474806869526216      -0.84404486598563078        3.9578670139958828E-004
 Bq   9.4881138871774559E-003  -1.9474806869526216      -0.35525542099966523        1.0186099876039002E-004
 Bq -0.30656777643835159       -2.0483905009106573      -0.52798897566010194        3.1017494949951279E-004
 Bq -0.29016002539465185       -1.7304902789652474       -1.0528964145147255        9.5599210240321941E-005
 Bq -0.27559347020505809        2.1783453906789232      -0.25059124795729648        3.7874478042515856E-004
 Bq  0.22467926865297622        1.9989413776485383      -0.23910795408522773        9.3212353566893497E-005
 Bq -0.26411017633298933        1.9989413776485383       0.24968149090073805        7.3058429130153468E-005
 Bq  -9.1376621672552602E-002   2.0998511916065739       -6.6374399424791009E-002   2.7333969901744689E-004
 Bq -0.61883948527366506        2.1783453906789232      -0.25059124795729648        4.9423999301775358E-004
 Bq -0.63032277914573387        1.9989413776485383       0.24968149090073782        3.4817420046192704E-004
 Bq  -1.1191122241316995        1.9989413776485383      -0.23910795408522773        6.6272612014164607E-004
 Bq -0.80305633380617047        2.0998511916065739       -6.6374399424791009E-002   4.8451007246269997E-004
 Bq  -1.7243581936785528        1.0728266822740351      -0.25059124795729648        1.3678180972296442E-004
 Bq  -1.5449541806481681        1.5730994211320692      -0.23910795408522773        5.0666533633893034E-004
 Bq  -1.5449541806481681        1.0843099761461039       0.24968149090073805        5.6233767777588638E-006
 Bq  -1.6458639946062037        1.2570435308065406       -6.6374399424791009E-002   3.1217251642770230E-004
 Bq -0.81946408484987021        1.7819509696611640       0.45853303942983242        9.7885993458163216E-005
 Bq  -1.3279637726607938        1.7819509696611640       -4.9966648381091265E-002   5.2743366768329852E-004
 Bq  -1.3279637726607938        1.2734512818502404       0.45853303942983242        2.3942212179593979E-006
 Bq  -1.1977718001556688        1.6517589971560387       0.32834106692470733        2.9384848123879099E-004
 Bq  -1.7243581936785528       0.72958066720542825      -0.25059124795729648        2.3256815727832511E-007
 Bq -0.27559347020505809        1.0728266822740351       -1.6993559714307911        6.8351549644848810E-005
 Bq  0.22467926865297622        1.0843099761461039       -1.5199519584004064        3.9827070759426737E-008
 Bq -0.26411017633298933        1.5730994211320697       -1.5199519584004064        4.6993424137379273E-004
 Bq  -9.1376621672552602E-002   1.2570435308065406       -1.6208617723584420        2.2784413929467223E-004
 Bq -0.27559347020505809        2.1783453906789232      -0.59383726302590345        4.9185218606684160E-004
 Bq  0.22467926865297622        1.9989413776485383      -0.60532055689797226        3.5822549371256496E-004
 Bq -0.26411017633298933        1.9989413776485383       -1.0941100018839380        6.4324902308742936E-004
 Bq  -9.1376621672552602E-002   2.0998511916065739      -0.77805411155840898        4.7604932226618898E-004
 Bq  0.43353081718207082        1.7819509696611640      -0.79446186260210871        9.8475489316401452E-005
 Bq  -7.4968870628852866E-002   1.7819509696611640       -1.3029615504130325        4.8999038533693710E-004
 Bq  0.30333884467694572        1.6517589971560387       -1.1727695779079073        2.1955050771521923E-004
 Bq -0.61883948527366506        1.0728266822740351       -1.6993559714307911        2.8404785881100321E-004
 Bq -0.63032277914573387        1.5730994211320692       -1.5199519584004064        6.1983533272187480E-004
 Bq  -1.1191122241316995        1.0843099761461039       -1.5199519584004064        4.5051756928812743E-004
 Bq -0.80305633380617047        1.2570435308065406       -1.6208617723584420        4.6479606504181814E-004
 Bq -0.61883948527366506        2.1783453906789232      -0.59383726302590345        6.0487297995102517E-004
 Bq -0.63032277914573387        1.9989413776485383       -1.0941100018839378        8.0279785647356260E-004
 Bq  -1.1191122241316995        1.9989413776485383      -0.60532055689797226        8.1426516920525755E-004
 Bq -0.80305633380617047        2.0998511916065739      -0.77805411155840898        7.7455928691478248E-004
 Bq  -1.7243581936785528        1.0728266822740351      -0.59383726302590345        2.8328656089125971E-004
 Bq  -1.5449541806481681        1.5730994211320692      -0.60532055689797226        6.4114302631007234E-004
 Bq  -1.5449541806481681        1.0843099761461039       -1.0941100018839380        4.4321772313725693E-004
 Bq  -1.6458639946062037        1.2570435308065406      -0.77805411155840898        4.7241240167809450E-004
 Bq -0.81946408484987021        1.7819509696611640       -1.3029615504130325        8.3063759709275410E-004
 Bq  -1.3279637726607938        1.7819509696611640      -0.79446186260210871        8.4220471098513886E-004
 Bq  -1.3279637726607938        1.2734512818502404       -1.3029615504130325        6.2138049917923044E-004
 Bq  -1.1977718001556688        1.6517589971560387       -1.1727695779079073        9.2093023789880800E-004
 Bq -0.61883948527366506       0.72958066720542825       -1.6993559714307911        5.2044016803878593E-005
 Bq  -1.1191122241316993       0.71809737333335943       -1.5199519584004064        1.7252911293860903E-004
 Bq -0.80305633380617047       0.54536381867292261       -1.6208617723584420        5.0972072721586738E-007
 Bq  -1.7243581936785528       0.72958066720542825      -0.59383726302590345        7.8691111551620882E-005
 Bq  -1.5449541806481681       0.71809737333335943       -1.0941100018839378        1.6184094217120215E-004
 Bq  -1.6458639946062037       0.54536381867292261      -0.77805411155840898        1.8766721883756609E-006
 Bq  -1.3279637726607938       0.52895606762922298       -1.3029615504130325        1.7674336501844198E-005
 Bq  0.31853790772311047       0.30679010672458323        2.3497986206805712        6.9185244808753676E-004
 Bq  0.81881064658114477       0.31827340059665199        2.1703946076501861        7.4717676380820365E-004
 Bq  0.33002120159517928       0.80706284558261776        2.1703946076501861        7.4205409901904255E-004
 Bq  0.50275475625561594       0.49100695525708871        2.2713044216082219        7.5117803601365757E-004
 Bq   1.4240566161279984       0.30679010672458323        1.2442799122756831        4.1691517127933353E-006
 Bq   1.2446526030976137       0.31827340059665199        1.7445526511337177        3.9370911335721924E-004
 Bq   1.2446526030976137       0.80706284558261776        1.2557632061477522        1.6896292127099832E-005
 Bq   1.3455624170556493       0.49100695525708871        1.4284967608081889        1.1835800577949926E-004
 Bq  0.31853790772311047        1.4123088151294709        1.2442799122756831        3.0350443393032718E-006
 Bq  0.81881064658114477        1.2329048020990863        1.2557632061477522        2.1580649810253061E-005
 Bq  0.33002120159517928        1.2329048020990863        1.7445526511337177        3.9437490885945950E-004
 Bq  0.50275475625561594        1.3338146160571218        1.4284967608081889        1.3668394777648757E-004
 Bq   1.0276621951102394       0.50741470630078844        1.9534041996628124        6.1706780033563349E-004
 Bq   1.0276621951102394        1.0159143941117121        1.4449045118518884        2.9842313723228286E-004
 Bq  0.51916250729931568        1.0159143941117121        1.9534041996628124        6.1526251359882525E-004
 Bq  0.89747022260511433       0.88572242160658698        1.8232122271576872        5.8948564657935229E-004
 Bq  -2.4708107345496461E-002  0.30679010672458323        2.3497986206805712        6.5487367121312061E-004
 Bq  -3.6191401217565235E-002  0.80706284558261754        2.1703946076501861        6.8889552968278073E-004
 Bq -0.52498084620353103       0.31827340059665199        2.1703946076501861        5.6880164651179968E-004
 Bq -0.20892495587800194       0.49100695525708871        2.2713044216082219        6.5370340163358625E-004
 Bq  -2.4708107345496461E-002   1.4123088151294709        1.2442799122756831        2.5322112174033338E-008
 Bq  -3.6191401217565235E-002   1.2329048020990863        1.7445526511337177        3.5133747049235207E-004
 Bq -0.20892495587800194        1.3338146160571218        1.4284967608081889        4.3196934214933431E-005
 Bq -0.95082280271999953       0.31827340059665199        1.7445526511337177        2.0357490263151493E-004
 Bq -0.22533270692170168        1.0159143941117121        1.9534041996628124        5.0258517480807530E-004
 Bq -0.73383239473262540        1.0159143941117121        1.4449045118518884        3.4455161646549831E-006
 Bq -0.73383239473262540       0.50741470630078844        1.9534041996628124        4.0320817732042202E-004
 Bq -0.60364042222750025       0.88572242160658698        1.8232122271576872        3.7204611579473367E-004
 Bq  -2.4708107345496461E-002  -3.6455908344023742E-002   2.3497986206805712        6.2019779188904117E-004
 Bq -0.52498084620353069       -4.7939202216092519E-002   2.1703946076501861        5.1467849549046037E-004
 Bq  -3.6191401217565235E-002 -0.53672864720205837        2.1703946076501861        5.1427495955239880E-004
 Bq -0.20892495587800194      -0.22067275687652924        2.2713044216082219        5.5831469869311169E-004
 Bq -0.95082280271999953       -4.7939202216092519E-002   1.7445526511337177        1.2645472491889696E-004
 Bq  -3.6191401217565235E-002 -0.96257060371852687        1.7445526511337177        1.2074293509362859E-004
 Bq -0.73383239473262540      -0.23708050792022897        1.9534041996628124        3.4905072417713314E-004
 Bq -0.22533270692170168      -0.74558019573115275        1.9534041996628124        3.4649912501740951E-004
 Bq -0.60364042222750025      -0.61538822322602760        1.8232122271576872        4.9641504019557591E-005
 Bq  0.31853790772311047       -3.6455908344023742E-002   2.3497986206805712        6.5768445063207231E-004
 Bq  0.33002120159517928      -0.53672864720205804        2.1703946076501861        5.7477545631246625E-004
 Bq  0.81881064658114511       -4.7939202216092519E-002   2.1703946076501861        6.9943547810667446E-004
 Bq  0.50275475625561594      -0.22067275687652924        2.2713044216082219        6.6216020406936835E-004
 Bq  0.33002120159517928      -0.96257060371852687        1.7445526511337177        1.8091220800008361E-004
 Bq   1.4240566161279984       -3.6455908344023742E-002   1.2442799122756831        2.5860652313151727E-007
 Bq   1.2446526030976137       -4.7939202216092519E-002   1.7445526511337177        3.6727392680475137E-004
 Bq   1.3455624170556493      -0.22067275687652924        1.4284967608081889        6.0792606468225638E-005
 Bq  0.51916250729931568      -0.74558019573115275        1.9534041996628124        4.1299991424254782E-004
 Bq   1.0276621951102394      -0.74558019573115275        1.4449045118518884        1.0216625755753289E-005
 Bq   1.0276621951102394      -0.23708050792022897        1.9534041996628124        5.2352666576532347E-004
 Bq  0.89747022260511433      -0.61538822322602760        1.8232122271576872        4.1425734704562728E-004
 Bq   2.2398575498366040       -1.5003798989800142E-002 -0.30668234558011825        4.6364001082540343E-004
 Bq   2.0604535368062198       -3.5205051177313665E-003  0.19359039327791602        1.6334808662979230E-004
 Bq   2.0604535368062198       0.48526893986823438      -0.29519905170804950        3.8064334690499682E-004
 Bq   2.1613633507642551       0.16921304954270536      -0.12246549704761280        3.3843466190030944E-004
 Bq   1.6346115802897507       0.91111089638470288      -0.29519905170804950        1.8670694273374866E-006
 Bq   1.8434631288188452       0.18562080058640509       0.40244194180701065        2.5017251531716433E-007
 Bq   1.8434631288188452       0.69412048839732876      -0.10605774600391306        6.9479700846111468E-005
 Bq   1.6346115802897510       -1.2843645094329101      -0.29519905170804950        3.1017136041353331E-004
 Bq   1.3185556899642219       -1.3852743233909457      -0.12246549704761280        5.9773417920975650E-006
 Bq   2.2398575498366040      -0.35824981405840706      -0.30668234558011825        5.1172550913589077E-004
 Bq   2.0604535368062198      -0.85852255291644142      -0.29519905170804950        5.5847566157318047E-004
 Bq   2.0604535368062198      -0.36973310793047587       0.19359039327791627        2.9640330767666495E-004
 Bq   2.1613633507642551      -0.54246666259091258      -0.12246549704761280        4.5671858947823050E-004
 Bq   1.8434631288188452       -1.0673741014455360      -0.10605774600391306        3.8662977679006021E-004
 Bq   1.8434631288188452      -0.55887441363461232       0.40244194180701065        1.3286867411874495E-004
 Bq   1.7132711563137202      -0.93718212894041097       0.27224996930188555        9.1867945456813039E-005
 Bq   1.1343388414317164       -1.5003798989800142E-002  -1.7554470690536130        2.0389831906009816E-004
 Bq   1.6346115802897507       -3.5205051177313665E-003  -1.5760430560232284        5.9577219155186644E-004
 Bq   1.1458221353037852       0.48526893986823438       -1.5760430560232284        1.8129682561056570E-005
 Bq   1.3185556899642219       0.16921304954270536       -1.6769528699812639        3.0389688966796745E-004
 Bq   2.2398575498366040       -1.5003798989800142E-002 -0.64992836064872528        5.9017958001933120E-004
 Bq   2.0604535368062198       -3.5205051177313665E-003  -1.1502010995067595        7.8748089430228101E-004
 Bq   2.0604535368062198       0.48526893986823438      -0.66141165452079398        5.0707430838957163E-004
 Bq   2.1613633507642551       0.16921304954270536      -0.83414520918123070        6.4507146861777359E-004
 Bq   1.6346115802897507       0.91111089638470288      -0.66141165452079398        9.0248221331838390E-005
 Bq   1.8434631288188452       0.18562080058640509       -1.3590526480358540        6.7754459680085860E-004
 Bq   1.8434631288188452       0.69412048839732876      -0.85055296022493043        4.1758327816757439E-004
 Bq   1.3349634410079216       0.69412048839732876       -1.3590526480358540        9.4191700885446679E-005
 Bq   1.7132711563137202       0.56392851589220361       -1.2288606755307290        4.9396221109374310E-004
 Bq  0.79109282636310940       -1.5003798989800142E-002  -1.7554470690536130        6.1538214176179363E-006
 Bq  0.79109282636310940      -0.35824981405840706       -1.7554470690536130        5.0619299712051026E-005
 Bq  0.77960953249104070      -0.85852255291644164       -1.5760430560232284        3.5455409177098107E-005
 Bq  0.77960953249104070       -1.2843645094329101       -1.1502010995067597        3.4440980781206815E-007
 Bq   1.1343388414317164      -0.35824981405840706       -1.7554470690536130        2.9537216764222092E-004
 Bq   1.1458221353037852      -0.85852255291644142       -1.5760430560232284        3.6431175626012655E-004
 Bq   1.6346115802897510      -0.36973310793047587       -1.5760430560232284        6.6717130294959579E-004
 Bq   1.3185556899642219      -0.54246666259091258       -1.6769528699812639        4.5308206492189706E-004
 Bq   1.1343388414317164       -1.4637685224632948      -0.64992836064872528        1.4902952195299211E-005
 Bq   1.1458221353037852       -1.2843645094329101       -1.1502010995067595        1.8216467423767097E-004
 Bq   1.6346115802897510       -1.2843645094329101      -0.66141165452079398        4.2756522834618092E-004
 Bq   1.3185556899642219       -1.3852743233909457      -0.83414520918123070        2.3260964615758056E-004
 Bq   2.2398575498366040      -0.35824981405840706      -0.64992836064872528        6.3717351722110849E-004
 Bq   2.0604535368062198      -0.85852255291644142      -0.66141165452079398        7.2308287195855755E-004
 Bq   2.0604535368062198      -0.36973310793047587       -1.1502010995067597        8.5325165093041251E-004
 Bq   2.1613633507642551      -0.54246666259091258      -0.83414520918123070        7.6823401155475608E-004
 Bq   1.3349634410079216       -1.0673741014455360       -1.3590526480358540        4.6508514176864322E-004
 Bq   1.8434631288188452       -1.0673741014455360      -0.85055296022493043        6.8896508991315129E-004
 Bq   1.8434631288188452      -0.55887441363461232       -1.3590526480358540        8.2865911095897382E-004
 Bq   1.7132711563137202      -0.93718212894041097       -1.2288606755307290        7.9778546454006621E-004
