                   248
 cosmo charges (= -Bq-charge) (coordinates in Angstrom) format: Bq x y z q
 Bq   1.96477402279237       0.264063977719035       0.264059502637862     
 -3.531907506237886E-005
 Bq   1.68876783877563       0.281730584324071        1.03370989834237     
 -1.511629944619050E-003
 Bq   1.68876783877563        1.03371437342354       0.281726109242898     
 -1.125318572024997E-003
 Bq   1.84401371209776       0.547474524318326       0.547470049237153     
 -1.368490603622999E-003
 Bq  0.263975947476874        1.96486205303453       0.264059502637862     
 -6.948315409591038E-004
 Bq   1.03362634318138        1.68885586901779       0.281726109242898     
 -1.005711919206079E-003
 Bq  0.281642554081910        1.68885586901779        1.03370989834237     
 -1.366815615793854E-003
 Bq  0.547386494076165        1.84410174233992       0.547470049237153     
 -1.193913477818470E-003
 Bq   1.35493642962711       0.572717219157607        1.35501998478810     
 -1.176514904305814E-004
 Bq   1.35493642962711        1.35502445986927       0.572712744076434     
 -1.149184987389210E-003
 Bq  0.572629188915446        1.35502445986927        1.35501998478810     
 -7.772625731264360E-005
 Bq   1.15464107996474        1.15472911020690        1.15472463512573     
 -8.060147700049980E-004
 Bq  -1.03374526001040       0.281730584324071        1.68885139393661     
 -1.668284145589088E-004
 Bq -0.264094864305889        1.96486205303453       0.264059502637862     
 -6.924931164607392E-006
 Bq -0.281761470910926        1.68885586901779        1.03370989834237     
 -1.594199325334306E-003
 Bq -0.547505410905181        1.84410174233992       0.547470049237153     
 -5.811963146002685E-004
 Bq  -1.96489293962139       0.264063977719035       0.264059502637862     
 -9.663733085025078E-004
 Bq  -1.68888675560464        1.03371437342354       0.281726109242898     
 -6.438033402954568E-004
 Bq  -1.68888675560464       0.281730584324071        1.03370989834237     
 -1.005673123303227E-003
 Bq  -1.84413262892677       0.547474524318326       0.547470049237153     
 -9.828518115570228E-004
 Bq -0.572748105744462        1.35502445986927        1.35501998478810     
 -1.137657352636393E-003
 Bq  -1.35505534645613        1.35502445986927       0.572712744076434     
 -7.609789373396042E-004
 Bq  -1.35505534645613       0.572717219157607        1.35501998478810     
 -1.182301126648772E-003
 Bq  -1.15475999679376        1.15472911020690        1.15472463512573     
 -1.581702291151940E-003
 Bq  -1.03374526001040      -0.281673440668765        1.68885139393661     
 -7.088776311390127E-004
 Bq -0.281761470910926       -1.03365722976824        1.68885139393661     
 -7.693285187534288E-004
 Bq  -1.96489293962139      -0.264006834063729       0.264059502637862     
 -6.769268099045406E-004
 Bq  -1.68888675560464      -0.281673440668765        1.03370989834237     
 -1.157466406564250E-003
 Bq  -1.84413262892677      -0.547417380663020       0.547470049237153     
 -4.622255200054382E-004
 Bq -0.264094864305889       -1.96480490937923       0.264059502637862     
  4.139743131807080E-004
 Bq -0.281761470910926       -1.68879872536248        1.03370989834237     
 -1.235258780262941E-003
 Bq -0.547505410905181       -1.84404459868461       0.547470049237153     
  6.607796645733410E-004
 Bq  -1.35505534645613      -0.572660075502301        1.35501998478810     
 -1.546966076516249E-003
 Bq -0.572748105744462       -1.35496731621397        1.35501998478810     
 -1.648906480240658E-003
 Bq  -1.15475999679376       -1.15467196655160        1.15472463512573     
 -1.048517498844964E-003
 Bq  0.281642554081910       -1.03365722976824        1.68885139393661     
 -1.396097240644809E-004
 Bq  0.263975947476874       -1.96480490937923       0.264059502637862     
 -8.805381017427671E-004
 Bq  0.281642554081910       -1.68879872536248        1.03370989834237     
 -1.149859107042628E-003
 Bq   1.03362634318138       -1.68879872536248       0.281726109242898     
 -1.047450373560493E-003
 Bq  0.547386494076165       -1.84404459868461       0.547470049237153     
 -9.346779717366999E-004
 Bq   1.96477402279237      -0.264006834063729       0.264059502637862     
  3.489727888799643E-004
 Bq   1.68876783877563       -1.03365722976824       0.281726109242898     
 -6.177263718541159E-004
 Bq   1.68876783877563      -0.281673440668765        1.03370989834237     
 -1.584779017027207E-003
 Bq   1.84401371209776      -0.547417380663020       0.547470049237153     
 -1.128481629378036E-003
 Bq  0.572629188915446       -1.35496731621397        1.35501998478810     
 -1.156265502155862E-003
 Bq   1.35493642962711       -1.35496731621397       0.572712744076434     
 -1.191394952099079E-003
 Bq   1.35493642962711      -0.572660075502301        1.35501998478810     
 -7.760076938479327E-004
 Bq   1.15464107996474       -1.15467196655160        1.15472463512573     
 -1.327645557363435E-003
 Bq  0.263975947476874       0.264063977719035       -1.96480938446040     
 -9.473623898710315E-004
 Bq   1.03362634318138       0.281730584324071       -1.68880320044365     
 -2.395572713191629E-006
 Bq  0.281642554081910        1.03371437342354       -1.68880320044365     
 -1.020705670714925E-003
 Bq  0.547386494076165       0.547474524318326       -1.84404907376579     
 -1.419592671858885E-003
 Bq   1.68876783877563        1.03371437342354      -0.281677915749938     
 -5.351710089875478E-004
 Bq  0.263975947476874        1.96486205303453      -0.264011309144901     
 -8.568978280686611E-005
 Bq   1.03362634318138        1.68885586901779      -0.281677915749938     
 -1.219528129121905E-003
 Bq  0.281642554081910        1.68885586901779       -1.03366170484941     
  5.634261164741416E-004
 Bq  0.547386494076165        1.84410174233992      -0.547421855744193     
 -5.507173068621390E-004
 Bq   1.35493642962711       0.572717219157607       -1.35497179129514     
  6.582083764493998E-004
 Bq   1.35493642962711        1.35502445986927      -0.572664550583474     
 -1.277607184279314E-003
 Bq  0.572629188915446        1.35502445986927       -1.35497179129514     
 -1.136215475016397E-003
 Bq   1.15464107996474        1.15472911020690       -1.15467644163277     
 -1.630604069180239E-003
 Bq -0.264094864305889       0.264063977719035       -1.96480938446040     
 -8.878300153248100E-004
 Bq -0.281761470910926        1.03371437342354       -1.68880320044365     
 -1.007262360464911E-005
 Bq  -1.03374526001040       0.281730584324071       -1.68880320044365     
 -1.164078425190798E-003
 Bq -0.547505410905181       0.547474524318326       -1.84404907376579     
 -7.212485071195207E-004
 Bq  -1.96489293962139       0.264063977719035      -0.264011309144901     
 -1.292401065377979E-003
 Bq  -1.68888675560464        1.03371437342354      -0.281677915749938     
 -6.754970317671000E-004
 Bq  -1.68888675560464       0.281730584324071       -1.03366170484941     
 -1.531744992166503E-003
 Bq  -1.84413262892677       0.547474524318326      -0.547421855744193     
 -7.147857751561570E-004
 Bq  -1.35505534645613       0.572717219157607       -1.35497179129514     
 -1.261346384361858E-004
 Bq -0.264094864305889      -0.264006834063729       -1.96480938446040     
 -7.457792635877716E-004
 Bq  -1.03374526001040      -0.281673440668765       -1.68880320044365     
 -1.271115127066694E-003
 Bq -0.281761470910926       -1.03365722976824       -1.68880320044365     
 -1.219704134905686E-003
 Bq -0.547505410905181      -0.547417380663020       -1.84404907376579     
 -9.143721695573925E-004
 Bq  -1.96489293962139      -0.264006834063729      -0.264011309144901     
 -7.652997564556729E-004
 Bq  -1.68888675560464      -0.281673440668765       -1.03366170484941     
 -1.046784698909703E-003
 Bq  -1.84413262892677      -0.547417380663020      -0.547421855744193     
 -2.718595795866852E-004
 Bq -0.281761470910926       -1.68879872536248       -1.03366170484941     
 -1.032356555076088E-004
 Bq  -1.35505534645613      -0.572660075502301       -1.35497179129514     
 -5.964702669264688E-004
 Bq -0.572748105744462       -1.35496731621397       -1.35497179129514     
  1.820627748727946E-004
 Bq  0.263975947476874      -0.264006834063729       -1.96480938446040     
 -8.540106656160368E-004
 Bq  0.281642554081910       -1.03365722976824       -1.68880320044365     
 -1.246349081057821E-003
 Bq  0.547386494076165      -0.547417380663020       -1.84404907376579     
 -7.322174844535123E-004
 Bq  0.263975947476874       -1.96480490937923      -0.264011309144901     
 -7.399127442049014E-004
 Bq  0.281642554081910       -1.68879872536248       -1.03366170484941     
 -1.462225919500293E-003
 Bq   1.03362634318138       -1.68879872536248      -0.281677915749938     
 -1.227952675331836E-003
 Bq  0.547386494076165       -1.84404459868461      -0.547421855744193     
 -1.344182905908597E-003
 Bq  0.572629188915446       -1.35496731621397       -1.35497179129514     
 -1.345283039726322E-003
 Bq   1.35493642962711       -1.35496731621397      -0.572664550583474     
  4.570721037818748E-004
 Bq  -1.93953029634899      -0.678170554914544      -4.719769930438427E-004
  2.278496681292902E-004
 Bq  -1.93953029634899       -1.02141656998315      -4.719769930438427E-004
  3.856989687201287E-004
 Bq  -1.76012628331860       -1.03289986385522       0.499800761864990     
  2.756733914527285E-004
 Bq  -1.76012628331860       -1.52168930884119       1.101131687902490E-002
  7.480700372176317E-004
 Bq  -1.86103609727664       -1.20563341851566       0.183744871539462     
  5.051383713261144E-004
 Bq -0.834011587944098       -2.12693527838804      -4.719769930438427E-004
  5.236649433863448E-004
 Bq  -1.33428432680213       -1.94753126535765       1.101131687902490E-002
  8.198054904440116E-004
 Bq -0.845494881816167       -1.94753126535765       0.499800761864991     
  3.629532030765825E-004
 Bq  -1.01822843647660       -2.04844107931569       0.183744871539462     
  6.156011996778198E-004
 Bq  -1.54313587533123       -1.22204116955936       0.708652310394085     
  2.426688783818895E-004
 Bq  -1.54313587533123       -1.73054085737028       0.200152622583161     
  7.755891101956548E-004
 Bq  -1.03463618752030       -1.73054085737028       0.708652310394085     
  3.467676255044447E-004
 Bq  -1.41294390282610       -1.60034888486515       0.578460337888960     
  5.809629199133581E-004
 Bq -0.490765572875491       -2.12693527838804      -4.719769930438427E-004
  4.054615372998255E-004
 Bq -0.479282279003422       -1.94753126535765       0.499800761864990     
 -2.766233415552773E-004
 Bq -0.306548724342986       -2.04844107931569       0.183744871539462     
 -8.913108879160699E-005
 Bq  -1.93953029634899      -0.678170554914544      -0.343717992061651     
  2.193533038413534E-004
 Bq  -1.76012628331860      -0.666687261042475      -0.843990730919685     
  2.121608104021233E-004
 Bq  -1.86103609727664      -0.493953706382038      -0.527934840594156     
  2.920727246040825E-004
 Bq  -1.33428432680213       -1.03289986385522       -1.26983268743615     
  3.554038528943287E-004
 Bq -0.845494881816167       -1.52168930884119       -1.26983268743615     
  3.654834690154651E-004
 Bq  -1.01822843647660       -1.20563341851566       -1.37074250139419     
  2.276666869388683E-004
 Bq  -1.93953029634899       -1.02141656998315      -0.343717992061651     
  4.151958305704598E-004
 Bq  -1.76012628331860       -1.03289986385522      -0.843990730919685     
  4.982960080116838E-004
 Bq  -1.76012628331860       -1.52168930884119      -0.355201285933720     
  8.100029837089656E-004
 Bq  -1.86103609727664       -1.20563341851566      -0.527934840594156     
  6.056468760816183E-004
 Bq -0.834011587944098       -2.12693527838804      -0.343717992061651     
  5.686503577638884E-004
 Bq  -1.33428432680213       -1.94753126535765      -0.355201285933720     
  8.831862805271477E-004
 Bq -0.845494881816167       -1.94753126535765      -0.843990730919685     
  6.520108785354022E-004
 Bq  -1.01822843647660       -2.04844107931569      -0.527934840594156     
  7.343575444643119E-004
 Bq  -1.54313587533123       -1.22204116955936       -1.05284227944878     
  5.884934607963514E-004
 Bq  -1.54313587533123       -1.73054085737028      -0.544342591637856     
  9.144405133400257E-004
 Bq  -1.03463618752030       -1.73054085737028       -1.05284227944878     
  6.756747883163612E-004
 Bq  -1.41294390282610       -1.60034888486515      -0.922650306943655     
  8.773663698931101E-004
 Bq -0.479282279003422       -1.52168930884119       -1.26983268743615     
  2.249643544665648E-005
 Bq -0.490765572875491       -2.12693527838804      -0.343717992061651     
  4.079520712244496E-004
 Bq -0.479282279003422       -1.94753126535765      -0.843990730919685     
  4.105842575566829E-004
 Bq -0.306548724342986       -2.04844107931569      -0.527934840594156     
  3.179669603698421E-004
 Bq -0.290140973299286       -1.73054085737028       -1.05284227944878     
  1.865680654795018E-004
 Bq -0.275508576626146        2.17837146205991      -0.250653892415807     
  4.106422163418950E-004
 Bq  0.224764162231889        1.99896744902953      -0.239170598543739     
  1.734217714453104E-004
 Bq -0.264025282754077        1.99896744902953       0.249618846442227     
  7.517255285816905E-005
 Bq -9.129172809364004E-002   2.09987726298756      -6.643704388330200E-002
  2.203231207006141E-004
 Bq -0.618754591694753        2.17837146205991      -0.250653892415807     
  5.139437966469700E-004
 Bq -0.630237885566821        1.99896744902953       0.249618846442227     
  2.822084790382422E-004
 Bq  -1.11902733055279        1.99896744902953      -0.239170598543739     
  6.873265392876998E-004
 Bq -0.802971440227258        2.09987726298756      -6.643704388330200E-002
  5.089293906826407E-004
 Bq  -1.72427330009964        1.07285275365503      -0.250653892415807     
  6.839733132673331E-004
 Bq  -1.54486928706926        1.57312549251306      -0.239170598543739     
  5.251167388760913E-004
 Bq  -1.64577910102729        1.25706960218753      -6.643704388330200E-002
  2.443151693110462E-004
 Bq -0.819379191270958        1.78197704104216       0.458470394971321     
  5.349639968312350E-005
 Bq  -1.32787887908188        1.78197704104216      -5.002929283960227E-002
  5.407414963469227E-004
 Bq  -1.19768690657676        1.65178506853703       0.328278422466196     
  2.351560858983720E-004
 Bq -0.275508576626146        1.07285275365503       -1.69941861588930     
  7.722484106782029E-005
 Bq -0.264025282754077        1.57312549251306       -1.52001460285892     
  4.752722308894522E-004
 Bq -9.129172809364004E-002   1.25706960218753       -1.62092441681695     
  1.927606287107503E-004
 Bq -0.275508576626146        2.17837146205991      -0.593899907484414     
  5.106979269645685E-004
 Bq  0.224764162231889        1.99896744902953      -0.605383201356483     
  2.746382656675719E-004
 Bq -0.264025282754077        1.99896744902953       -1.09417264634245     
  6.538950402669198E-004
 Bq -9.129172809364004E-002   2.09987726298756      -0.778116756016920     
  4.806862766292032E-004
 Bq  0.433615710760983        1.78197704104216      -0.794524507060620     
  2.304675743835388E-005
 Bq -7.488397704994031E-002   1.78197704104216       -1.30302419487154     
  4.717688268223719E-004
 Bq  0.303423738255858        1.65178506853703       -1.17283222236642     
 -1.647196719108922E-004
 Bq -0.618754591694753        1.07285275365503       -1.69941861588930     
  2.900949946239087E-004
 Bq -0.630237885566821        1.57312549251306       -1.52001460285892     
  6.411005228978972E-004
 Bq  -1.11902733055279        1.08433604752710       -1.52001460285892     
  4.501496120321163E-004
 Bq -0.802971440227258        1.25706960218753       -1.62092441681695     
  4.762193776941537E-004
 Bq -0.618754591694753        2.17837146205991      -0.593899907484414     
  6.227392331859677E-004
 Bq -0.630237885566821        1.99896744902953       -1.09417264634245     
  8.302226264432916E-004
 Bq  -1.11902733055279        1.99896744902953      -0.605383201356483     
  8.434297520040109E-004
 Bq -0.802971440227258        2.09987726298756      -0.778116756016920     
  7.978047709175339E-004
 Bq  -1.72427330009964        1.07285275365503      -0.593899907484414     
  3.209808011137155E-004
 Bq  -1.54486928706926        1.57312549251306      -0.605383201356483     
  6.662090701065118E-004
 Bq  -1.54486928706926        1.08433604752710       -1.09417264634245     
  4.440771430764510E-004
 Bq  -1.64577910102729        1.25706960218753      -0.778116756016920     
  4.838143546103471E-004
 Bq -0.819379191270958        1.78197704104216       -1.30302419487154     
  8.576897629611578E-004
 Bq  -1.32787887908188        1.78197704104216      -0.794524507060620     
  8.705397357325860E-004
 Bq  -1.32787887908188        1.27347735323123       -1.30302419487154     
  6.376257461372346E-004
 Bq  -1.19768690657676        1.65178506853703       -1.17283222236642     
  9.506138911862423E-004
 Bq  -1.11902733055279       0.718123444714351       -1.52001460285892     
  1.502677984977184E-004
 Bq  -1.54486928706926       0.718123444714351       -1.09417264634245     
  1.273006984267473E-004
 Bq  0.318529937244724       0.306728327242720        2.34981741683826     
  7.141373715729166E-004
 Bq  0.818802676102758       0.318211621114789        2.17041340380787     
  7.743433546947391E-004
 Bq  0.330013231116793       0.807001066100754        2.17041340380787     
  7.694828695962649E-004
 Bq  0.502746785777229       0.490945175775225        2.27132321776591     
  7.735851296222680E-004
 Bq   1.24464463261923       0.318211621114789        1.74457144729140     
  3.934051684845105E-004
 Bq   1.34555444657726       0.490945175775225        1.42851555696587     
  1.607359838188688E-004
 Bq  0.330013231116793        1.23284302261722        1.74457144729140     
  4.015432509301003E-004
 Bq  0.502746785777229        1.33375283657526        1.42851555696587     
  1.076966579670480E-004
 Bq   1.02765422463185       0.507352926818925        1.95342299582050     
  6.366182563962430E-004
 Bq   1.02765422463185        1.01585261462985        1.44492330800957     
  2.148949853738279E-004
 Bq  0.519154536820929        1.01585261462985        1.95342299582050     
  6.357232656761629E-004
 Bq  0.897462252126728       0.885660642124724        1.82323102331537     
  6.072522988773837E-004
 Bq -2.471607782388303E-002  0.306728327242720        2.34981741683826     
  6.767342467313107E-004
 Bq -3.619937169595180E-002  0.807001066100754        2.17041340380787     
  7.156855008715844E-004
 Bq -0.524988816681918       0.318211621114789        2.17041340380787     
  5.879521217536030E-004
 Bq -0.208932926356389       0.490945175775225        2.27132321776591     
  6.743917223491595E-004
 Bq -3.619937169595180E-002   1.23284302261722        1.74457144729140     
  3.525224324783249E-004
 Bq -0.950830773198386       0.318211621114789        1.74457144729140     
  1.435821117268445E-004
 Bq -0.225340677400088        1.01585261462985        1.95342299582050     
  5.240187508256632E-004
 Bq -0.733840365211012       0.507352926818925        1.95342299582050     
  4.040044139985294E-004
 Bq -0.603648392705887       0.885660642124724        1.82323102331537     
  3.011938075339129E-004
 Bq -2.471607782388303E-002 -3.651768782588710E-002   2.34981741683826     
  6.415456353107522E-004
 Bq -0.524988816681917      -4.800098169795588E-002   2.17041340380787     
  5.390127023048863E-004
 Bq -3.619937169595180E-002 -0.536790426683922        2.17041340380787     
  5.403642884674424E-004
 Bq -0.208932926356389      -0.220734536358393        2.27132321776591     
  5.761098170586620E-004
 Bq -0.950830773198386      -4.800098169795588E-002   1.74457144729140     
  1.171615681437276E-004
 Bq -3.619937169595180E-002 -0.962632383200390        1.74457144729140     
  9.796837371652684E-005
 Bq -0.733840365211012      -0.237142287402092        1.95342299582050     
  2.633499553979998E-004
 Bq -0.225340677400088      -0.745641975213016        1.95342299582050     
  2.611229960688688E-004
 Bq -0.603648392705887      -0.615450002707891        1.82323102331537     
  2.077768195553331E-005
 Bq  0.318529937244724      -3.651768782588710E-002   2.34981741683826     
  6.795122585178219E-004
 Bq  0.330013231116793      -0.536790426683921        2.17041340380787     
  5.943974621916252E-004
 Bq  0.818802676102758      -4.800098169795588E-002   2.17041340380787     
  7.247547114151744E-004
 Bq  0.502746785777229      -0.220734536358393        2.27132321776591     
  6.813831261531025E-004
 Bq  0.330013231116793      -0.962632383200390        1.74457144729140     
  1.303178939106144E-004
 Bq   1.24464463261923      -4.800098169795588E-002   1.74457144729140     
  3.609891419066175E-004
 Bq  0.519154536820929      -0.745641975213016        1.95342299582050     
  4.129124259649314E-004
 Bq   1.02765422463185      -0.237142287402092        1.95342299582050     
  5.331421074713169E-004
 Bq  0.897462252126728      -0.615450002707891        1.82323102331537     
  3.942263811425942E-004
 Bq   2.23981390921352      -1.494706767364152E-002 -0.306704905633783     
  4.797036727379814E-004
 Bq   2.06040989618314      -3.463773801572744E-003  0.193567833224251     
  8.714608564155610E-005
 Bq   2.06040989618314       0.485325671184393      -0.295221611761714     
  3.804371866613435E-004
 Bq   2.16131971014117       0.169269780858864      -0.122488057101278     
  3.411390738339015E-004
 Bq   1.63456793966667       -1.28430777811675      -0.295221611761714     
  2.183421184794795E-004
 Bq   2.23981390921352      -0.358193082742248      -0.306704905633783     
  5.290391042815611E-004
 Bq   2.06040989618314      -0.858465821600283      -0.295221611761714     
  5.847653818332015E-004
 Bq   2.06040989618314      -0.369676376614317       0.193567833224251     
  4.296184202449288E-005
 Bq   2.16131971014117      -0.542409931274754      -0.122488057101278     
  4.706357530001072E-004
 Bq   1.84341948819576       -1.06731737012938      -0.106080306057578     
  3.225319503596009E-004
 Bq   1.84341948819576      -0.558817682318454       0.402419381753346     
  3.011231686885240E-004
 Bq   1.71322751569064      -0.937125397624252       0.272227409248221     
  3.454983380399290E-004
 Bq   1.13429520080863      -1.494706767364152E-002  -1.75546962910728     
  1.637552656889689E-004
 Bq   1.63456793966667      -3.463773801572744E-003  -1.57606561607689     
  6.034123262638746E-004
 Bq   1.14577849468070       0.485325671184393       -1.57606561607689     
 -4.664220606221195E-005
 Bq   1.31851204934114       0.169269780858864       -1.67697543003493     
  2.812160335441162E-004
 Bq   2.23981390921352      -1.494706767364152E-002 -0.649950920702390     
  6.083308687741158E-004
 Bq   2.06040989618314      -3.463773801572744E-003  -1.15022365956042     
  8.134786998019658E-004
 Bq   2.06040989618314       0.485325671184393      -0.661434214574459     
  5.190968873707048E-004
 Bq   2.16131971014117       0.169269780858864      -0.834167769234895     
  6.623652949360390E-004
 Bq   1.84341948819576       0.185677531902564       -1.35907520808952     
  6.816787296732192E-004
 Bq   1.84341948819576       0.694177219713487      -0.850575520278595     
  4.136571541992692E-004
 Bq   1.33491980038484       0.694177219713487       -1.35907520808952     
 -2.148434458494174E-004
 Bq   1.71322751569064       0.563985247208362       -1.22888323558439     
  4.228743149853054E-004
 Bq   1.13429520080863      -0.358193082742248       -1.75546962910728     
  2.974486377165589E-004
 Bq   1.14577849468070      -0.858465821600283       -1.57606561607689     
  3.628091798655586E-004
 Bq   1.63456793966667      -0.369676376614317       -1.57606561607689     
  6.902781919375378E-004
 Bq   1.31851204934114      -0.542409931274754       -1.67697543003493     
  4.652744122774673E-004
 Bq   1.14577849468070       -1.28430777811675       -1.15022365956042     
  1.469962694045368E-004
 Bq   1.63456793966667       -1.28430777811675      -0.661434214574459     
  3.560641968108590E-004
 Bq   1.31851204934114       -1.38521759207479      -0.834167769234895     
  8.488610858663204E-005
 Bq   2.23981390921352      -0.358193082742248      -0.649950920702390     
  6.559975355247150E-004
 Bq   2.06040989618314      -0.858465821600283      -0.661434214574459     
  7.496180814302034E-004
 Bq   2.06040989618314      -0.369676376614317       -1.15022365956042     
  8.824530161529315E-004
 Bq   2.16131971014117      -0.542409931274754      -0.834167769234895     
  7.905830290541524E-004
 Bq   1.33491980038484       -1.06731737012938       -1.35907520808952     
  4.767980880138190E-004
 Bq   1.84341948819576       -1.06731737012938      -0.850575520278595     
  7.136691868409456E-004
 Bq   1.84341948819576      -0.558817682318454       -1.35907520808952     
  8.557130897861899E-004
 Bq   1.71322751569064      -0.937125397624252       -1.22888323558439     
  8.227052416466540E-004
